%chk=opt.chk
%mem=4GB
%nprocshared=8
#p opt UM062X/6-311+G** nosymm int=superfine

Title Card Required

0 1
C -0.65245520 0.00000000 0.00000000
O 0.65245520 0.00000000 0.00000000
H -1.15293097 -0.88323305  0.00000000
H -1.15266011  0.88337061 -0.00028595

