%chk=opt.chk
%mem=24GB
%nprocshared=28
#p opt UM062X/6-311+G** nosymm int=superfine 

Title Card Required

1 2
C -1  -1.81182617  0.00000000  0.00000000
C -1   1.81182617  0.00000000 -0.00000000
C 0  -0.00000994 -2.05545100 -0.00218400
C 0  -0.00001988 -3.45663400 -0.00371000
C 0  -1.25111565 -4.28964700  0.19341900
C 0  -1.46029128 -1.46623300  0.16419700
C 0   0.73392417 -5.68273300 -0.12500700
H 0   1.43246834 -6.55103000 -0.24207000
C 0  -1.83436481  0.76445700  1.22074200
C 0  -0.73400037 -5.68298300  0.11278600
H 0  -1.43253129 -6.55152100  0.22810600
C 0   1.25106043 -4.28923100 -0.20263200
C 0   1.46026919 -1.46588400 -0.16727800
C 0   1.97201183  2.19168900 -1.33769900
C 0  -1.93633477  0.40953900 -1.37420600
C 0  -2.03365431  2.76908500  2.62285300
H 0  -2.15721758  3.84514500  2.68868800
C 0  -2.59275690 -3.70308600  0.41334100
H 0  -3.58889963 -4.27951100  0.58257000
C 0  -1.92777055  1.75683100 -1.86867700
C 0   2.66273059 -2.28649400 -0.38846300
H 0   3.73359349 -1.81328700 -0.50709000
C 0   1.93637010  0.40665600  1.37505900
C 0   1.92781141  1.75290300  1.87236300
C 0   2.59274144 -3.70220600 -0.42113800
H 0   3.58889410 -4.27827200 -0.59153800
C 0  -1.97225257  2.18886500  1.34229400
C 0  -1.67439782  0.04225000  2.44254900
H 0  -1.51801554 -1.02702500  2.40771200
C 0   2.01456235 -0.62790300  2.36195200
H 0   2.05327416 -1.65906400  2.04521500
C 0  -1.93405981  2.02407800  3.78017400
H 0  -1.99572990  2.50708000  4.74815100
C 0  -2.66273722 -2.28730400  0.38372300
H 0  -3.73358797 -1.81434400  0.50342700
C 0  -1.95183650  1.98025300 -3.26008800
H 0  -1.92521950  3.00602900 -3.60919500
C 0   1.83432284  0.76701800 -1.21914100
C 0  -1.97440163  3.13594400  0.25924100
H 0  -2.00474028  4.17143300  0.58431100
C 0  -2.02746113  0.95518900 -4.17545700
H 0  -2.06390461  1.17003200 -5.23669600
C 0  -1.91953763  2.95542500 -1.07578900
H 0  -1.90097797  3.86784300 -1.66423700
C 0   1.95209933  1.97339900  3.26423800
H 0   1.92551878  2.99843800  3.61550800
C 0  -1.73008566  0.64359400  3.67979400
H 0  -1.61316836  0.03773200  4.57151700
C 0  -2.01444639 -0.62294000 -2.36327900
H 0  -2.05322557 -1.65476100 -2.04870200
C 0   2.02787637  0.94641300  4.17744200
H 0   2.06450869  1.15903100  5.23912300
C 0   2.03341577  2.77460400 -2.61703400
H 0   2.15682002  3.85081600 -2.68059700
C 0   2.07800823 -0.37237300  3.71002300
H 0   2.16194198 -1.19837700  4.40661800
C 0   1.93402889  2.03201600 -3.77592100
H 0   1.99572438  2.51705500 -4.74287700
C 0   1.97390910  3.13649300 -0.25265600
H 0   2.00392527  4.17267000 -0.57555100
C 0  -2.07771337 -0.36457400 -3.71081600
H 0  -2.16161510 -1.18910900 -4.40915300
C 0   1.91922290  2.95316000  1.08199600
H 0   1.90050089  3.86433700  1.67236000
C 0   1.67447843  0.04736400 -2.44246500
H 0   1.51819113 -1.02199400 -2.40988200
C 0   1.73019720  0.65130400 -3.67844300
H 0   1.61340579  0.04729700 -4.57143800

