Graphene                     
   1.00000000000000     
     4.3672540172122769    0.0000000000000000    0.0000000000000000
     -2.1835755270817883    3.7821730489737466    0.0000000000000000
     0.0000000000000000    0.0000000000000000    15.0000000000000000
   C 
     2
Direct
  0.0000000000000000  0.0000000000000000  0.5
  0.6666688455419298  0.3333346372906099  0.5
