%oldchk=force.chk
%chk=nbo.chk
#p UM062X/6-311+G** Pop=NBO Read

NBO Analysis

0 1
C -0.80213956  0.00000000  0.00000000
S  0.80213956 -0.00000000  0.00000000
H -1.37778175 -0.92503703  0.00000000
H -1.37889620  0.92433870 -0.00015231

$NBO
ARCHIVE FILE=ethane_nbo.47
$END


