%oldchk=force.chk
%chk=nbo.chk
#p UM062X/6-311+G** Pop=NBO Read

NBO Analysis

0 3
B -0.75341047  0.00000000  0.00000000
B  0.75341047  0.00000000  0.00000000
H -1.92595276 -0.00008027  0.00000000
H  1.92595276  0.00008027  0.00000000

$NBO
ARCHIVE FILE=ethane_nbo.47
$END


