%chk=opt.chk
%mem=4GB
%nprocshared=8
#p opt UM062X/6-311+G** nosymm int=superfine

Title Card Required

0 3
N  0.63163709  0.00000000 -0.00000000
H  0.99286972 -0.95581883 -0.00012569


