%chk=opt.chk
%mem=4GB
%nprocshared=8
#p opt UM062X/6-311+G** nosymm int=superfine

Title Card Required

0 3
P  0.83045248  0.00000000  0.00000000
H  1.01087048 -1.41087917  0.00126115


