%chk=opt.chk
%mem=4GB
%nprocshared=8
#p opt UM062X/6-311+G** nosymm int=superfine

Title Card Required

0 2
O -1.08600650  0.00000000 -0.00000000
H -2.05756055 -0.00085003  0.00000000


