Graphene                     
   1.00000000000000     
     2.2206376358706494    0.0000000000000000    0.0000000000000000
     -1.1102926408890448    1.9231388384612271    0.0000000000000000
     0.0000000000000000    0.0000000000000000    15.0000000000000000
   C 
     2
Direct
  0.0000000000000000  0.0000000000000000  0.5
  0.6666688455419298  0.3333346372906099  0.5
