%chk=opt.chk
%mem=4GB
%nprocshared=8
#p opt UM062X/6-311+G** nosymm int=superfine

Title Card Required

0 1
B -0.82742901 -0.00000000  0.00000000
H -1.13601625 -0.58327670  1.01025442
H -1.13601637  1.16654475  0.00002019
H -1.13603540 -0.58325811 -1.01025675


