%chk=opt.chk
%mem=8GB
%nprocshared=24
#p opt UM062X/6-311+G** nosymm int=superfine 

Title Card Required

0 1
C -1 -1.87167500  0.00000000  0.00000000
C -1  1.87180000  0.00000000  0.00000000
H 0  2.08152000 -0.91817100  0.53130100
H 0 -2.08136800 -0.91921000 -0.52950700
H 0  2.08149800  0.91921100  0.52950500
H 0  2.08151400 -0.00103100 -1.06080100
H 0 -2.08139500  0.91817000 -0.53130200
H 0 -2.08139600  0.00103000  1.06080100

