%chk=opt.chk
%mem=24GB
%nprocshared=28
#p opt UM062X/6-311+G** nosymm int=superfine 

Title Card Required

1 2
C -1  -1.76902713  0.00000000  0.00000000
C -1   1.76902713  0.00000000 -0.00000000
C 0  -0.00000970 -2.05545100 -0.00218400
C 0  -0.00001941 -3.45663400 -0.00371000
C 0  -1.22156174 -4.28964700  0.19341900
C 0  -1.42579621 -1.46623300  0.16419700
C 0   0.71658737 -5.68273300 -0.12500700
H 0   1.39863050 -6.55103000 -0.24207000
C 0  -1.79103336  0.76445700  1.22074200
C 0  -0.71666177 -5.68298300  0.11278600
H 0  -1.39869197 -6.55152100  0.22810600
C 0   1.22150783 -4.28923100 -0.20263200
C 0   1.42577464 -1.46588400 -0.16727800
C 0   1.92542887  2.19168900 -1.33769900
C 0  -1.89059457  0.40953900 -1.37420600
C 0  -1.98561523  2.76908500  2.62285300
H 0  -2.10625969  3.84514500  2.68868800
C 0  -2.53151068 -3.70308600  0.41334100
H 0  -3.50412247 -4.27951100  0.58257000
C 0  -1.88223266  1.75683100 -1.86867700
C 0   2.59983144 -2.28649400 -0.38846300
H 0   3.64539837 -1.81328700 -0.50709000
C 0   1.89062908  0.40665600  1.37505900
C 0   1.88227256  1.75290300  1.87236300
C 0   2.53149558 -3.70220600 -0.42113800
H 0   3.50411708 -4.27827200 -0.59153800
C 0  -1.92566393  2.18886500  1.34229400
C 0  -1.63484511  0.04225000  2.44254900
H 0  -1.48215690 -1.02702500  2.40771200
C 0   1.96697426 -0.62790300  2.36195200
H 0   2.00477162 -1.65906400  2.04521500
C 0  -1.88837336  2.02407800  3.78017400
H 0  -1.94858668  2.50708000  4.74815100
C 0  -2.59983791 -2.28730400  0.38372300
H 0  -3.64539297 -1.81434400  0.50342700
C 0  -1.90573012  1.98025300 -3.26008800
H 0  -1.87974188  3.00602900 -3.60919500
C 0   1.79099238  0.76701800 -1.21914100
C 0  -1.92776223  3.13594400  0.25924100
H 0  -1.95738421  4.17143300  0.58431100
C 0  -1.97956835  0.95518900 -4.17545700
H 0  -2.01515096  1.17003200 -5.23669600
C 0  -1.87419423  2.95542500 -1.07578900
H 0  -1.85607297  3.86784300 -1.66423700
C 0   1.90598675  1.97339900  3.26423800
H 0   1.88003409  2.99843800  3.61550800
C 0  -1.68921750  0.64359400  3.67979400
H 0  -1.57506202  0.03773200  4.57151700
C 0  -1.96686104 -0.62294000 -2.36327900
H 0  -2.00472417 -1.65476100 -2.04870200
C 0   1.97997377  0.94641300  4.17744200
H 0   2.01574077  1.15903100  5.23912300
C 0   1.98538233  2.77460400 -2.61703400
H 0   2.10587151  3.85081600 -2.68059700
C 0   2.02892143 -0.37237300  3.71002300
H 0   2.11087249 -1.19837700  4.40661800
C 0   1.88834317  2.03201600 -3.77592100
H 0   1.94858129  2.51705500 -4.74287700
C 0   1.92728132  3.13649300 -0.25265600
H 0   1.95658845  4.17267000 -0.57555100
C 0  -2.02863353 -0.36457400 -3.71081600
H 0  -2.11055332 -1.18910900 -4.40915300
C 0   1.87388692  2.95316000  1.08199600
H 0   1.85560717  3.86433700  1.67236000
C 0   1.63492383  0.04736400 -2.44246500
H 0   1.48232835 -1.02199400 -2.40988200
C 0   1.68932640  0.65130400 -3.67844300
H 0   1.57529384  0.04729700 -4.57143800

