%chk=opt.chk
%mem=16GB
%nprocshared=28
#p UM062X/6-311+G** force int=superfine 

Title Card Required

1 2
C   -0.998670   0.000000   0.000000
C   0.998670   0.000000   0.000000
H   1.138238   -0.931937   0.539318
H   -1.137622   -0.933078   -0.537522
H   1.137812   0.933118   0.537404
H   1.137669   -0.001083   -1.076823
H   -1.138248   0.931973   -0.539255
H   -1.137846   0.000967   1.076800

