%chk=opt.chk
%mem=16GB
%nprocshared=28
#p UM062X/6-311+G** force int=superfine 

Title Card Required

1 2
C   -1.055737   0.000000   0.000000
C   1.055737   0.000000   0.000000
H   1.177562   -0.933301   0.540114
H   -1.176948   -0.934427   -0.538314
H   1.177206   0.934475   0.538173
H   1.176986   -0.001099   -1.078391
H   -1.177576   0.933344   -0.540036
H   -1.177230   0.000958   1.078363

