%chk=opt.chk
%mem=16GB
%nprocshared=28
#p UM062X/6-311+G** force int=superfine 

Title Card Required

1 2
C   -1.312538   0.000000   0.000000
C   1.312538   0.000000   0.000000
H   1.385417   -0.936029   0.541732
H   -1.384393   -0.937147   -0.539932
H   1.384999   0.937229   0.539709
H   1.384506   -0.001141   -1.081547
H   -1.385449   0.936103   -0.541601
H   -1.385080   0.000917   1.081510

