%chk=opt.chk
%mem=4GB
%nprocshared=8
#p UM062X/6-311+G** force int=superfine 

Title Card Required

0 1
N -0.61542801  0.00000000  0.00000000
N  0.61542801  0.00000000  0.00000000
H -0.91606107 -0.98793245  0.00000000
H  0.91606107  0.98793245  0.00000000

