%chk=opt.chk
%mem=4GB
%nprocshared=8
#p opt UM062X/6-311+G** nosymm int=superfine

Title Card Required

0 1
N -1 -1.29042801  0.00000000  0.00000000
N -1  1.29042801  0.00000000  0.00000000
H  0 -1.59106107 -0.98793245  0.00000000
H  0  1.59106107  0.98793245  0.00000000

