%chk=opt.chk
%mem=16GB
%nprocshared=24
#p UM062X/6-311+G** force int=superfine 

Title Card Required

1 2
C   -0.857453   0.000000   0.000000
C   0.857453   0.000000   0.000000
H   -1.954374   -0.000000   0.000000
H   1.954352   0.000000   -0.000000

