%chk=opt.chk
%mem=16GB
%nprocshared=24
#p UM062X/6-311+G** force int=superfine 

Title Card Required

1 2
C   -0.882306   0.000000   0.000000
C   0.882306   0.000000   0.000000
H   -2.080655   -0.000000   0.000000
H   2.080645   -0.000000   0.000000

