%chk=opt.chk
%mem=4GB
%nprocshared=8
#p opt UM062X/6-311+G** nosymm int=superfine

Title Card Required

0 1
Si -1 -1.61981901 -0.00000000  0.00000000
Si -1  1.61981901  0.00000000  0.00000000
H  0  2.13180551 -1.39020122  0.00000000
H  0 -2.13170776 -0.69501893  1.20404702
H  0  2.13190278  0.69518935 -1.20386028
H  0  2.13171476  0.69504821  1.20402854
H  0 -2.13181151  1.39019933 -0.00011906
H  0 -2.13190779 -0.69521870 -1.20384206

