%chk=opt.chk
%mem=4GB
%nprocshared=8
#p opt UM062X/6-311+G** nosymm int=superfine 

Title Card Required

0 1
C -1 -1.93262500  0.00000000  0.00000000
C -1  1.93262500  0.00000000  0.00000000
H 0 -3.01554500 -0.00000100  0.00000100
H 0  3.01550500  0.00000000 -0.00000000

