%chk=opt.chk
%mem=4GB
%nprocshared=8
#p opt UM062X/6-311+G** nosymm int=superfine 

Title Card Required

0 1
C -1 -1.932625    0.000000    0.000000
C -1  1.932625    0.000000    0.000000
H 0  -3.055487   -0.000006    0.000006
H 0   3.055486    0.000004   -0.000004

