Graphene                     
   1.00000000000000     
     3.6023677204123863    0.0000000000000000    0.0000000000000000
     -1.8011413952200059    3.1197585601704350    0.0000000000000000
     0.0000000000000000    0.0000000000000000    15.0000000000000000
   C 
     2
Direct
  0.0000000000000000  0.0000000000000000  0.5
  0.6666688455419298  0.3333346372906099  0.5
