%chk=opt.chk
%mem=4GB
%nprocshared=8
#p opt UM062X/6-311+G** nosymm int=superfine

Title Card Required

0 2
O -0.83939168  0.00000000 -0.00000000
H -1.14108385 -0.91346790  0.00000000


