%chk=opt.chk
%mem=16GB
%nprocshared=24
#p opt UM062X/6-311+G** nosymm int=superfine 

Title Card Required

1 2
C -1 -1.78216000  0.00000000  0.00000000
C -1  1.78216000  0.00000000  0.00000000
H 0 -2.88315300 -0.00000000  0.00000000
H 0  2.88313100 -0.00000000  0.00000000

