%chk=opt.chk
%mem=16GB
%nprocshared=24
#p opt UM062X/6-311+G** nosymm int=superfine 

Title Card Required

1 2
C -1 -2.03216000  0.00000000  0.00000000
C -1  2.03216000  0.00000000  0.00000000
H 0 -3.13315300 -0.00000000  0.00000000
H 0  3.13313100 -0.00000000  0.00000000

