%chk=opt.chk
%mem=16GB
%nprocshared=24
#p opt UM062X/6-311+G** nosymm int=superfine 

Title Card Required

1 2
C -1 -2.15716000  0.00000000  0.00000000
C -1  2.15716000  0.00000000  0.00000000
H 0 -3.25815300 -0.00000000  0.00000000
H 0  3.25813100 -0.00000000  0.00000000

