%chk=opt.chk
%mem=4GB
%nprocshared=8
#p opt UM062X/6-311+G** nosymm int=superfine

Title Card Required

1 2
Si -1 -2.02629201  0.00000000  0.00000000
Si -1  2.02629201 -0.00000000  0.00000000
H  0  2.22437173 -1.45402430  0.00000000
H  0 -2.22369400 -0.72694161  1.25938062
H  0  2.22430601  0.72706046 -1.25920909
H  0  2.22343328  0.72707028  1.25935341
H  0 -2.22440373  1.45401953 -0.00003421
H  0 -2.22401630 -0.72720125 -1.25918055

