%chk=opt.chk
%mem=4GB
%nprocshared=8
#p opt UM062X/6-311+G** nosymm int=superfine

Title Card Required

1 2
Si -1 -2.40129201  0.00000000  0.00000000
Si -1  2.40129201 -0.00000000  0.00000000
H  0  2.59937173 -1.45402430  0.00000000
H  0 -2.59869400 -0.72694161  1.25938062
H  0  2.59930601  0.72706046 -1.25920909
H  0  2.59843328  0.72707028  1.25935341
H  0 -2.59940373  1.45401953 -0.00003421
H  0 -2.59901630 -0.72720125 -1.25918055

