Graphene                     
   1.00000000000000     
     4.5646440292896679    0.0000000000000000    0.0000000000000000
     -2.2822682062719255    3.9531187235036334    0.0000000000000000
     0.0000000000000000    0.0000000000000000    15.0000000000000000
   C 
     2
Direct
  0.0000000000000000  0.0000000000000000  0.5
  0.6666688455419298  0.3333346372906099  0.5
