%chk=opt.chk
%mem=32GB
%nprocshared=16
#p opt UM062X/6-311+G** nosymm int=superfine

Title Card Required

0 1
C  -0.597442    0.056007   -0.052874
N   0.588877    0.395021   -0.132740
H  -1.017148   -1.013552    0.033346
H   1.232748   -0.369904    0.087612
H  -1.359696    0.932566    0.064370

