%chk=opt.chk
%mem=4GB
%nprocshared=8
#p opt UM062X/6-311+G** nosymm int=superfine

Title Card Required

0 1
B -0.61706583  0.00000000  0.00000000
H -1.78295693 -0.00072450  0.00000000


