%oldchk=force.chk
%chk=nbo.chk
#p UM062X/6-311+G** Pop=NBO Read

NBO Analysis

-1 2
B   -1.090633   -0.000114   0.000036
B   1.090710   0.000114   -0.000049
H   1.298299   -1.028543   0.595190
H   -1.297754   -1.030017   -0.593208
H   1.298018   1.030008   0.593151
H   1.297782   -0.001036   -1.188601
H   -1.298231   1.028538   -0.595209
H   -1.297882   0.001000   1.188560

$NBO
ARCHIVE FILE=ethane_nbo.47
$END


