%chk=opt.chk
%mem=16GB
%nprocshared=24
#p opt UM062X/6-311+G** nosymm int=superfine SCF=NoVarAcc

Title Card Required

1 2
C -1 -9.88216000  0.00000000  0.00000000
C -1  9.88216000  0.00000000  0.00000000
H 0 -10.98315300 -0.00000000  0.00000000
H 0  10.98313100 -0.00000000  0.00000000

