%chk=opt.chk
%mem=4GB
%nprocshared=8
#p opt UM062X/6-311+G** nosymm int=superfine

Title Card Required

0 2
N  0.73054223  0.00000000 -0.00000000
H  1.09221604 -0.94599854 -0.00000000
H  1.09221839  0.45735611  0.82809214


