%chk=force.chk 
%mem=4GB
%nprocshared=8
#p UM062X/6-311+G** force int=superfine  pop=saveNBO 

Title Card Required

-1 2
B -0.74140401  0.00000000  0.00000000
B  0.74140401  0.00000000  0.00000000
H -1.92518303 -0.00090417  0.00000000
H  1.92518303  0.00090417  0.00000000

