%chk=opt.chk
%mem=4GB
%nprocshared=8
#p opt UM062X/6-311+G** nosymm int=superfine

Title Card Required

0 1
P 0.545048 0.000000 0.000000
P -0.545048 0.000000 0.000000

