Graphene                     
   1.00000000000000     
     4.2192115081542338    0.0000000000000000    0.0000000000000000
     -2.1095560176891852    3.6539637930763313    0.0000000000000000
     0.0000000000000000    0.0000000000000000    15.0000000000000000
   C 
     2
Direct
  0.0000000000000000  0.0000000000000000  0.5
  0.6666688455419298  0.3333346372906099  0.5
