%oldchk=force.chk
%chk=nbo.chk
#p UM062X/6-311+G** Pop=NBO Read

NBO Analysis

1 2
B -0.65273421  0.00000000  0.00000000
N  0.65273421  0.00000000  0.00000000
H -1.82068943 -0.00026083  0.00000000
H  1.67125015  0.00000234  0.00000000

$NBO
ARCHIVE FILE=ethane_nbo.47
$END


