Graphene                     
   1.00000000000000     
     4.1698640051348859    0.0000000000000000    0.0000000000000000
     -2.0848828478916506    3.6112273744438594    0.0000000000000000
     0.0000000000000000    0.0000000000000000    15.0000000000000000
   C 
     2
Direct
  0.0000000000000000  0.0000000000000000  0.5
  0.6666688455419298  0.3333346372906099  0.5
