%oldchk=force.chk
%chk=nbo.chk
#p UM062X/6-311+G** Pop=NBO Read

NBO Analysis

1 2
C -0.79442700  0.00000000  0.00000000
P  0.79442700  0.00000000  0.00000000
H -1.87918400  0.00000000  0.00000000

$NBO
ARCHIVE FILE=ethane_nbo.47
$END


