%oldchk=force.chk
%chk=nbo.chk
#p UM062X/6-311+G** Pop=NBO Read

NBO Analysis

1 2
Si -1.10297457  0.00000000  0.00000000
Si  1.10297457  0.00000000  0.00000000
H -1.67439957 -1.37462879  0.00000000
H  2.08930572  1.10448803  0.00000000

$NBO
ARCHIVE FILE=ethane_nbo.47
$END


