%oldchk=force.chk
%chk=nbo.chk
#p UM062X/6-311+G** Pop=NBO Read

NBO Analysis

0 1
B -0.61706583  0.00000000  0.00000000
N  0.61706583  0.00000000  0.00000000
H -1.78295693 -0.00072450  0.00000000
H  1.61121896  0.00008608  0.00000000

$NBO
ARCHIVE FILE=ethane_nbo.47
$END


