Graphene                     
   1.00000000000000     
     3.5036727143736908    0.0000000000000000    0.0000000000000000
     -1.7517950556249373    3.0342857229054911    0.0000000000000000
     0.0000000000000000    0.0000000000000000    15.0000000000000000
   C 
     2
Direct
  0.0000000000000000  0.0000000000000000  0.5
  0.6666688455419298  0.3333346372906099  0.5
