%chk=opt.chk
%mem=24GB
%nprocshared=28
#p opt UM062X/6-311+G** nosymm int=superfine 

Title Card Required

1 2
C -1  -1.84035887  0.00000000  0.00000000
C -1   1.84035887  0.00000000 -0.00000000
C 0  -0.00001010 -2.05545100 -0.00218400
C 0  -0.00002019 -3.45663400 -0.00371000
C 0  -1.27081826 -4.28964700  0.19341900
C 0  -1.48328799 -1.46623300  0.16419700
C 0   0.74548203 -5.68273300 -0.12500700
H 0   1.45502690 -6.55103000 -0.24207000
C 0  -1.86325244  0.76445700  1.22074200
C 0  -0.74555943 -5.68298300  0.11278600
H 0  -1.45509083 -6.55152100  0.22810600
C 0   1.27076217 -4.28923100 -0.20263200
C 0   1.48326556 -1.46588400 -0.16727800
C 0   2.00306713  2.19168900 -1.33769900
C 0  -1.96682823  0.40953900 -1.37420600
C 0  -2.06568037  2.76908500  2.62285300
H 0  -2.19118951  3.84514500  2.68868800
C 0  -2.63358772 -3.70308600  0.41334100
H 0  -3.64541773 -4.27951100  0.58257000
C 0  -1.95812914  1.75683100 -1.86867700
C 0   2.70466336 -2.28649400 -0.38846300
H 0   3.79239023 -1.81328700 -0.50709000
C 0   1.96686412  0.40665600  1.37505900
C 0   1.95817064  1.75290300  1.87236300
C 0   2.63357202 -3.70220600 -0.42113800
H 0   3.64541212 -4.27827200 -0.59153800
C 0  -2.00331167  2.18886500  1.34229400
C 0  -1.70076629  0.04225000  2.44254900
H 0  -1.54192130 -1.02702500  2.40771200
C 0   2.04628774 -0.62790300  2.36195200
H 0   2.08560918 -1.65906400  2.04521500
C 0  -1.96451744  2.02407800  3.78017400
H 0  -2.02715872  2.50708000  4.74815100
C 0  -2.70467009 -2.28730400  0.38372300
H 0  -3.79238463 -1.81434400  0.50342700
C 0  -1.98257408  1.98025300 -3.26008800
H 0  -1.95553792  3.00602900 -3.60919500
C 0   1.86320982  0.76701800 -1.21914100
C 0  -2.00549457  3.13594400  0.25924100
H 0  -2.03631099  4.17143300  0.58431100
C 0  -2.05938965  0.95518900 -4.17545700
H 0  -2.09640704  1.17003200 -5.23669600
C 0  -1.94976657  2.95542500 -1.07578900
H 0  -1.93091463  3.86784300 -1.66423700
C 0   1.98284105  1.97339900  3.26423800
H 0   1.95584191  2.99843800  3.61550800
C 0  -1.75733110  0.64359400  3.67979400
H 0  -1.63857258  0.03773200  4.57151700
C 0  -2.04616996 -0.62294000 -2.36327900
H 0  -2.08555983 -1.65476100 -2.04870200
C 0   2.05981143  0.94641300  4.17744200
H 0   2.09702063  1.15903100  5.23912300
C 0   2.06543807  2.77460400 -2.61703400
H 0   2.19078569  3.85081600 -2.68059700
C 0   2.11073277 -0.37237300  3.71002300
H 0   2.19598831 -1.19837700  4.40661800
C 0   1.96448603  2.03201600 -3.77592100
H 0   2.02715311  2.51705500 -4.74287700
C 0   2.00499428  3.13649300 -0.25265600
H 0   2.03548315  4.17267000 -0.57555100
C 0  -2.11043327 -0.36457400 -3.71081600
H 0  -2.19565628 -1.18910900 -4.40915300
C 0   1.94944688  2.95316000  1.08199600
H 0   1.93043003  3.86433700  1.67236000
C 0   1.70084817  0.04736400 -2.44246500
H 0   1.54209965 -1.02199400 -2.40988200
C 0   1.75744440  0.65130400 -3.67844300
H 0   1.63881376  0.04729700 -4.57143800

