%chk=opt.chk
%mem=24GB
%nprocshared=64
#p opt UM062X/6-311+G** nosymm int=superfine

Title Card Required

1 2
C -1  -1.35532487  0.00000000 -0.00000000
C -1   1.35532487  0.00000000  0.00000000
C 0  -0.00000847 -2.10939150  0.00000000
C 0  -0.00004028 -3.49739450 -0.00002923
C 0  -1.07633163 -4.30978824  0.23683941
C 0  -1.20353830 -1.47743341  0.21180861
C 0   0.62891936 -5.70448148 -0.14037520
H 0   1.21979205 -6.57770083 -0.27590245
C 0  -1.47785377  0.79909228  1.19497871
C 0  -0.62903250 -5.70445753  0.14058092
H 0  -1.21992605 -6.57765518  0.27615289
C 0   1.07624256 -4.30982477 -0.23673149
C 0   1.20354351 -1.47746159 -0.21171188
C 0   1.63645700  2.22015782 -1.26414711
C 0  -1.50765902  0.36304969 -1.38863642
C 0  -1.77753923  2.83477859  2.52156339
H 0  -1.91204879  3.90897484  2.54870898
C 0  -2.21129221 -3.68593494  0.49420130
H 0  -3.07561949 -4.24085414  0.69215352
C 0  -1.53486968  1.69172550 -1.92531445
C 0   2.25453730 -2.26363507 -0.46776802
H 0   3.16374197 -1.77391050 -0.61586487
C 0   1.50762837  0.36320231  1.38856797
C 0   1.53470215  1.69192550  1.92515097
C 0   2.21127595 -3.68600507 -0.49384898
H 0   3.07562408 -4.24095586 -0.69161423
C 0  -1.63687988  2.22017516  1.26398248
C 0  -1.40535516  0.11335766  2.44139402
H 0  -1.24453506 -0.95247618  2.44459888
C 0   1.60351302 -0.69940635  2.34047366
H 0   1.61773841 -1.72224140  1.99670883
C 0  -1.74711811  2.12465651  3.70314913
H 0  -1.86690100  2.63347160  4.65105868
C 0  -2.25451601 -2.26355193  0.46808304
H 0  -3.16368348 -1.77379450  0.61631016
C 0  -1.60459605  1.87110722 -3.32211454
H 0  -1.60569773  2.88568909 -3.70323753
C 0   1.47779147  0.79902971 -1.19505569
C 0  -1.60933849  3.13669941  0.15424373
H 0  -1.65056649  4.18083977  0.44851673
C 0  -1.69655093  0.81743900 -4.20129371
H 0  -1.76945291  0.99791802 -5.26660776
C 0  -1.53569759  2.91654451 -1.17256652
H 0  -1.51755948  3.80967096 -1.78986703
C 0   1.60474839  1.87140379  3.32191113
H 0   1.60575099  2.88600091  3.70298763
C 0  -1.54122238  0.74609370  3.65570968
H 0  -1.48276922  0.16759911  4.56943471
C 0  -1.60341393 -0.69962065 -2.34049884
H 0  -1.61774598 -1.72243661 -1.99668506
C 0   1.69702537  0.81779202  4.20113081
H 0   1.77023106  0.99835301  5.26640679
C 0   1.77726199  2.83471440 -2.52173664
H 0   1.91155618  3.90893814 -2.54891016
C 0   1.71241394 -0.48541917  3.69307679
H 0   1.80590840 -1.33313772  4.36004668
C 0   1.74721795  2.12450650 -3.70328028
H 0   1.86709542  2.63327641 -4.65120146
C 0   1.60841103  3.13677656 -0.15449784
H 0   1.64910905  4.18090918 -0.44887282
C 0  -1.71204574 -0.48573282 -3.69314018
H 0  -1.80539909 -1.33350526 -4.36006394
C 0   1.53491223  2.91669446  1.17232838
H 0   1.51631999  3.80985499  1.78956641
C 0   1.40567308  0.11321235 -2.44144785
H 0   1.24513288 -0.95266380 -2.44465558
C 0   1.54159806  0.74590932 -3.65577389
H 0   1.48339387  0.16732892 -4.56946386

