%oldchk=../00030/opt.chk
%chk=opt.chk
%mem=4GB
%nprocshared=8
#p opt UM062X/6-311+G** nosymm int=superfine SCF=(MaxCycle=200,NoVarAcc,noincfock) guess=read

Title Card Required

1 2
C -1  -0.776540   0.000000   0.000000
N -1  0.776540   0.000000   0.000000
H  0  -1.870760   0.000000   0.000000

