%chk=opt.chk
%mem=4GB
%nprocshared=8
#p opt UM062X/6-311+G** nosymm int=superfine

Title Card Required

1 2
C -1 -0.90153950  0.00000000  0.00000000
N -1  0.90153950  0.00000000  0.00000000
H  0 -1.99575950  0.00000000  0.00000000

