%chk=opt.chk
%mem=4GB
%nprocshared=8
#p opt UM062X/6-311+G** nosymm int=superfine

Title Card Required

1 2
C -1  -1.226540   0.000000   0.000000
N -1  1.226540   0.000000   0.000000
H  0  -2.320760   0.000000   0.000000

