%oldchk=../00175/opt.chk
%chk=opt.chk
%mem=4GB
%nprocshared=8
#p opt UM062X/6-311+G** nosymm int=superfine SCF=(MaxCycle=200,NoVarAcc,noincfock) guess=read

Title Card Required


C -1  -1.501540   0.000000   0.000000
N -1  1.501540   0.000000   0.000000
H  0  -2.595759   0.000000   0.000000

