%chk=opt.chk
%mem=4GB
%nprocshared=8
#p opt UM062X/6-311+G** nosymm int=superfine

Title Card Required

0 3
C -0.59831100  0.00000000 -0.00000000
H -1.18020644 -0.93929902  0.00000000
H -1.18021258  0.93929601  0.00000052


