%chk=opt.chk
%mem=4GB
%nprocshared=8
#p opt UM062X/6-311+G** nosymm int=superfine

Title Card Required

0 3
C -0.83045248  0.00000000  0.00000000
H -1.45130431 -0.88884363  0.00000000
H -1.36343765  0.94545478  0.00008691


