%oldchk=force.chk
%chk=nbo.chk
#p UM062X/6-311+G** Pop=NBO Read

NBO Analysis

0 1
C -0.83045248  0.00000000  0.00000000
P  0.83045248  0.00000000  0.00000000
H -1.45130431 -0.88884363  0.00000000
H  1.01087048 -1.41087917  0.00126115
H -1.36343765  0.94545478  0.00008691

$NBO
ARCHIVE FILE=ethane_nbo.47
$END


