%chk=opt.chk
%mem=4GB
%nprocshared=8
#p opt UM062X/6-311+G** nosymm int=superfine

Title Card Required

0 1
C -1 -1.97239450  0.00000000  0.00000000
N -1  1.97239450  0.00000000  0.00000000
H  0 -3.04003750  0.00000000  0.00000000

