%chk=opt.chk
%mem=8GB
%nprocshared=24
#p UM062X/6-311+G** force int=superfine 

Title Card Required

0 1
C   -0.488670   0.000000   0.000000
C   0.488720   0.000000   0.000000
H   1.031132   -0.846290   0.489704
H   -1.031066   -0.847290   -0.488034
H   1.031116   0.847291   0.488029
H   1.031122   -0.000915   -0.977787
H   -1.031082   0.846287   -0.489709
H   -1.031072   0.000912   0.977786

