%chk=opt.chk
%mem=8GB
%nprocshared=24
#p UM062X/6-311+G** force int=superfine 

Title Card Required

0 1
C   -0.603202   0.000000   0.000000
C   0.603264   0.000000   0.000000
H   1.075253   -0.861875   0.498734
H   -1.075190   -0.862862   -0.497043
H   1.075252   0.862862   0.497040
H   1.075258   -0.000956   -0.995777
H   -1.075191   0.861874   -0.498736
H   -1.075197   0.000954   0.995776

