%chk=opt.chk
%mem=8GB
%nprocshared=24
#p UM062X/6-311+G** force int=superfine 

Title Card Required

0 1
C   -0.618473   0.000000   0.000000
C   0.618536   0.000000   0.000000
H   1.082531   -0.863788   0.499847
H   -1.082467   -0.864775   -0.498154
H   1.082531   0.864776   0.498151
H   1.082536   -0.000960   -0.997989
H   -1.082468   0.863787   -0.499849
H   -1.082474   0.000958   0.997989

