%chk=opt.chk
%mem=8GB
%nprocshared=24
#p UM062X/6-311+G** force int=superfine 

Title Card Required

0 1
C   -0.771182   0.000000   0.000000
C   0.771261   0.000000   0.000000
H   1.163005   -0.881737   0.510215
H   -1.162919   -0.882734   -0.508492
H   1.162998   0.882733   0.508491
H   1.162984   -0.000991   -1.018723
H   -1.162926   0.881736   -0.510215
H   -1.162906   0.000991   1.018722

