%chk=opt.chk
%mem=8GB
%nprocshared=24
#p UM062X/6-311+G** force int=superfine 

Title Card Required

0 1
C   -1.007882   0.000000   0.000000
C   1.007985   0.000000   0.000000
H   1.298073   -0.905139   0.523787
H   -1.297972   -0.906162   -0.522022
H   1.298077   0.906161   0.522020
H   1.298138   -0.001021   -1.045748
H   -1.297970   0.905140   -0.523787
H   -1.298037   0.001021   1.045746

