Graphene                     
   1.00000000000000     
     3.8737789870187989    0.0000000000000000    0.0000000000000000
     -1.9368438291064447    3.3548088626490289    0.0000000000000000
     0.0000000000000000    0.0000000000000000    15.0000000000000000
   C 
     2
Direct
  0.0000000000000000  0.0000000000000000  0.5
  0.6666688455419298  0.3333346372906099  0.5
