Graphene                     
   1.00000000000000     
     2.5660701570060835    0.0000000000000000    0.0000000000000000
     -1.2830048294717851    2.2222937688885289    0.0000000000000000
     0.0000000000000000    0.0000000000000000    15.0000000000000000
   C 
     2
Direct
  0.0000000000000000  0.0000000000000000  0.5
  0.6666688455419298  0.3333346372906099  0.5
