%chk=opt.chk
%mem=4GB
%nprocshared=8
#p opt UM062X/6-311+G** nosymm int=superfine

Title Card Required

-1 1
B -0.82227400  0.00000000  0.00000000
H -1.49284376 -1.01583528  0.00000000
H -1.49284625  1.01583374 -0.00000500


