%chk=opt.chk
%mem=24GB
%nprocshared=32
#p opt UM062X/6-311+G** nosymm int=superfine

Title Card Required

1 2
C -1  -1.54079038  0.00000000 -0.00000000
C -1   1.54079038  0.00000000  0.00000000
C 0  -0.00000963 -2.10939150  0.00000000
C 0  -0.00004579 -3.49739450 -0.00002923
C 0  -1.22361911 -4.30978824  0.23683941
C 0  -1.36823301 -1.47743341  0.21180861
C 0   0.71498201 -5.70448148 -0.14037520
H 0   1.38671096 -6.57770083 -0.27590245
C 0  -1.68008639  0.79909228  1.19497871
C 0  -0.71511063 -5.70445753  0.14058092
H 0  -1.38686329 -6.57765518  0.27615289
C 0   1.22351786 -4.30982477 -0.23673149
C 0   1.36823894 -1.47746159 -0.21171188
C 0   1.86039323  2.22015782 -1.26414711
C 0  -1.71397026  0.36304969 -1.38863642
C 0  -2.02078144  2.83477859  2.52156339
H 0  -2.17369758  3.90897484  2.54870898
C 0  -2.51389009 -3.68593494  0.49420130
H 0  -3.49649374 -4.24085414  0.69215352
C 0  -1.74490447  1.69172550 -1.92531445
C 0   2.56305293 -2.26363507 -0.46776802
H 0   3.59667509 -1.77391050 -0.61586487
C 0   1.71393541  0.36320231  1.38856797
C 0   1.74471403  1.69192550  1.92515097
C 0   2.51387160 -3.68600507 -0.49384898
H 0   3.49649895 -4.24095586 -0.69161423
C 0  -1.86087397  2.22017516  1.26398248
C 0  -1.59766692  0.11335766  2.44139402
H 0  -1.41483986 -0.95247618  2.44459888
C 0   1.82294112 -0.69940635  2.34047366
H 0   1.83911314 -1.72224140  1.99670883
C 0  -1.98619743  2.12465651  3.70314913
H 0  -2.12237167  2.63347160  4.65105868
C 0  -2.56302873 -2.26355193  0.46808304
H 0  -3.59660859 -1.77379450  0.61631016
C 0  -1.82417235  1.87110722 -3.32211454
H 0  -1.82542479  2.88568909 -3.70323753
C 0   1.68001557  0.79902971 -1.19505569
C 0  -1.82956376  3.13669941  0.15424373
H 0  -1.87643348  4.18083977  0.44851673
C 0  -1.92871053  0.81743900 -4.20129371
H 0  -2.01158857  0.99791802 -5.26660776
C 0  -1.74584568  2.91654451 -1.17256652
H 0  -1.72522551  3.80967096 -1.78986703
C 0   1.82434554  1.87140379  3.32191113
H 0   1.82548534  2.88600091  3.70298763
C 0  -1.75212650  0.74609370  3.65570968
H 0  -1.68567448  0.16759911  4.56943471
C 0  -1.82282847 -0.69962065 -2.34049884
H 0  -1.83912175 -1.72243661 -1.99668506
C 0   1.92924989  0.81779202  4.20113081
H 0   2.01247321  0.99835301  5.26640679
C 0   2.02046627  2.83471440 -2.52173664
H 0   2.17313755  3.90893814 -2.54891016
C 0   1.94674427 -0.48541917  3.69307679
H 0   2.05303271 -1.33313772  4.36004668
C 0   1.98631093  2.12450650 -3.70328028
H 0   2.12259269  2.63327641 -4.65120146
C 0   1.82850938  3.13677656 -0.15449784
H 0   1.87477660  4.18090918 -0.44887282
C 0  -1.94632568 -0.48573282 -3.69314018
H 0  -2.05245370 -1.33350526 -4.36006394
C 0   1.74495285  2.91669446  1.17232838
H 0   1.72381641  3.80985499  1.78956641
C 0   1.59802834  0.11321235 -2.44144785
H 0   1.41551949 -0.95266380 -2.44465558
C 0   1.75255358  0.74590932 -3.65577389
H 0   1.68638461  0.16732892 -4.56946386

