%chk=opt.chk
%mem=24GB
%nprocshared=28
#p opt UM062X/6-311+G** nosymm int=superfine 

Title Card Required

1 2
C -1  -1.98301142  0.00000000 -0.00000000
C -1   1.98301142  0.00000000 -0.00000000
C 0  -0.00015290 -1.98856500 -0.00626500
C 0   0.00001497 -3.39883100 -0.01071700
C 0  -1.19702309 -4.24606900  0.22573300
C 0  -1.44301139 -1.42477300  0.18087700
C 0   0.70417828 -5.63715200 -0.16281300
H 0   1.37950764 -6.50179000 -0.30831200
C 0  -2.00151981  0.78920500  1.20146600
C 0  -0.70376021 -5.63816300  0.12703300
H 0  -1.37897302 -6.50380800  0.26692800
C 0   1.19719310 -4.24438900 -0.25267800
C 0   1.44261043 -1.42348500 -0.19007300
C 0   2.51737447  2.14234500 -1.32746000
C 0  -2.25801972  0.35445900 -1.36980700
C 0  -2.47786105  2.75022300  2.60467900
H 0  -2.88722888  3.76040100  2.68886500
C 0  -2.49272763 -3.68227900  0.49339100
H 0  -3.44030774 -4.27011000  0.70123600
C 0  -2.70320678  1.63923000 -1.85430600
C 0   2.57663124 -2.26839800 -0.46237000
H 0   3.61944559 -1.81229400 -0.59929500
C 0   2.25804324  0.34580200  1.37186900
C 0   2.70450910  1.62727300  1.86419900
C 0   2.49274260 -3.67874100 -0.51698800
H 0   3.44039114 -4.26508000 -0.72872400
C 0  -2.51355304  2.13502500  1.34065100
C 0  -1.44966522  0.17930900  2.38518300
H 0  -1.05371730 -0.83322500  2.33620100
C 0   2.03532033 -0.66985100  2.35708400
H 0   1.75403565 -1.66852200  2.04270600
C 0  -1.93425129  2.12232200  3.72278700
H 0  -1.92256888  2.63208100  4.67823000
C 0  -2.57686968 -2.27164700  0.44763000
H 0  -3.61976422 -1.81652600  0.58725300
C 0  -2.81878528  1.84911600 -3.24158500
H 0  -3.14711076  2.83007500 -3.58446800
C 0   2.00204694  0.79678700 -1.19631800
C 0  -3.05859556  2.96691100  0.28298800
H 0  -3.44787148  3.93177600  0.62145700
C 0  -2.55393361  0.85593900 -4.16481800
H 0  -2.66482353  1.05634400 -5.22425100
C 0  -3.10971762  2.77043900 -1.04890800
H 0  -3.52778899  3.60329000 -1.62464100
C 0   2.81894673  1.82886600  3.25283500
H 0   3.14804527  2.80743600  3.60182900
C 0  -1.40546322  0.82120100  3.60110800
H 0  -0.96837665  0.30660300  4.46211700
C 0  -2.03688568 -0.65537200 -2.36124400
H 0  -1.75626179 -1.65615300 -2.05310600
C 0   2.55212447  0.83046500  4.16983900
H 0   2.66211517  1.02450400  5.23054200
C 0   2.48255604  2.76528700 -2.58776500
H 0   2.89470815  3.77493500 -2.66614300
C 0   2.17815994 -0.44137400  3.70613100
H 0   2.00305415 -1.25390600  4.40380800
C 0   1.93604012  2.14556700 -3.70912400
H 0   1.92485382  2.66123700 -4.66140000
C 0   3.06464527  2.96658800 -0.26502200
H 0   3.45670225  3.93248100 -0.59768800
C 0  -2.18061062 -0.41881300 -3.70888900
H 0  -2.00679646 -1.22739400 -4.41143000
C 0   3.11409292  2.76231300  1.06583900
H 0   3.53356391  3.59095800  1.64672700
C 0   1.44736209  0.19544800 -2.38328500
H 0   1.04874431 -0.81642800 -2.34013300
C 0   1.40346268  0.84503700 -3.59505800
H 0   0.96370304  0.33701200 -4.45876200

