%chk=opt.chk
%mem=4GB
%nprocshared=8
#p opt UM062X/6-311+G** nosymm int=superfine

Title Card Required

1 2
B -0.61542801 0.00000000 0.00000000
N 0.61542801 0.00000000 0.00000000
H -0.91606107 -0.98793245  0.00000000
H  0.91606107  0.98793245  0.00000000

