%chk=opt.chk
%mem=4GB
%nprocshared=8
#p opt UM062X/6-311+G** nosymm int=superfine

Title Card Required

0 2
B -0.87060700 -0.00000000  0.00000000
H -1.49858405 -1.01313617 -0.00000000
H -1.49858696  1.01313284 -0.00000499


