%chk=opt.chk
%mem=4GB
%nprocshared=8
#p opt UM062X/6-311+G** nosymm int=superfine

Title Card Required

0 1
B -1  -1.295607   0.000000   0.000000
B -1  1.295607   0.000000   0.000000
H  0  -1.836616   -0.747478   -0.741218
H  0  1.836294   0.745646   -0.743316
H  0  -1.836344   0.747684   0.741213
H  0  1.836987   -0.744343   0.744100

