%chk=opt.chk
%mem=8GB
%nprocshared=24
#p opt UM062X/6-311+G** nosymm int=superfine 

Title Card Required

0 1
C -1 -1.29667500  0.00000000  0.00000000
C -1  1.29680000  0.00000000  0.00000000
H 0  1.50652000 -0.91817100  0.53130100
H 0 -1.50636800 -0.91921000 -0.52950700
H 0  1.50649800  0.91921100  0.52950500
H 0  1.50651400 -0.00103100 -1.06080100
H 0 -1.50639500  0.91817000 -0.53130200
H 0 -1.50639600  0.00103000  1.06080100

