%chk=opt.chk
%mem=8GB
%nprocshared=24
#p opt UM062X/6-311+G** nosymm int=superfine 

Title Card Required

0 1
C -1 -1.16059144 -0.00000000  0.00000000
C -1  1.16071000  0.00000000 -0.00000000
H 0  1.76155688 -0.88075400  0.50964900
H 0 -1.76113280 -0.88202100 -0.50795000
H 0  1.76124832  0.88200900  0.50791600
H 0  1.76126200 -0.00087300 -1.01781900
H 0 -1.76143984  0.88074200 -0.50968100
H 0 -1.76114344  0.00086000  1.01778700

