%chk=opt.chk
%mem=4GB
%nprocshared=8
#p opt UM062X/6-311+G** nosymm int=superfine

Title Card Required

0 2
P  0.93126351 -0.00000000  0.00000000
H  1.11134654 -1.40533770  0.00000000
H  1.11134689  0.10933615  1.40107976


