%chk=opt.chk
%mem=24GB
%nprocshared=64
#p opt UM062X/6-311+G** nosymm int=superfine

Title Card Required

1 2
C -1  -1.21265910  0.00000000 -0.00000000
C -1   1.21265910  0.00000000  0.00000000
C 0  -0.00000758 -2.10939150  0.00000000
C 0  -0.00003604 -3.49739450 -0.00002923
C 0  -0.96303356 -4.30978824  0.23683941
C 0  -1.07685006 -1.47743341  0.21180861
C 0   0.56271732 -5.70448148 -0.14037520
H 0   1.09139289 -6.57770083 -0.27590245
C 0  -1.32229022  0.79909228  1.19497871
C 0  -0.56281855 -5.70445753  0.14058092
H 0  -1.09151278 -6.57765518  0.27615289
C 0   0.96295387 -4.30982477 -0.23673149
C 0   1.07685472 -1.47746159 -0.21171188
C 0   1.46419837  2.22015782 -1.26414711
C 0  -1.34895807  0.36304969 -1.38863642
C 0  -1.59042984  2.83477859  2.52156339
H 0  -1.71078050  3.90897484  2.54870898
C 0  -1.97852461 -3.68593494  0.49420130
H 0  -2.75187007 -4.24085414  0.69215352
C 0  -1.37330445  1.69172550 -1.92531445
C 0   2.01721759 -2.26363507 -0.46776802
H 0   2.83071650 -1.77391050 -0.61586487
C 0   1.34893065  0.36320231  1.38856797
C 0   1.37315456  1.69192550  1.92515097
C 0   1.97851006 -3.68600507 -0.49384898
H 0   2.75187418 -4.24095586 -0.69161423
C 0  -1.46457673  2.22017516  1.26398248
C 0  -1.25742304  0.11335766  2.44139402
H 0  -1.11353137 -0.95247618  2.44459888
C 0   1.43472217 -0.69940635  2.34047366
H 0   1.44745016 -1.72224140  1.99670883
C 0  -1.56321094  2.12465651  3.70314913
H 0  -1.67038511  2.63347160  4.65105868
C 0  -2.01719854 -2.26355193  0.46808304
H 0  -2.83066417 -1.77379450  0.61631016
C 0  -1.43569120  1.87110722 -3.32211454
H 0  -1.43667692  2.88568909 -3.70323753
C 0   1.32223447  0.79902971 -1.19505569
C 0  -1.43993444  3.13669941  0.15424373
H 0  -1.47682265  4.18083977  0.44851673
C 0  -1.51796662  0.81743900 -4.20129371
H 0  -1.58319471  0.99791802 -5.26660776
C 0  -1.37404521  2.91654451 -1.17256652
H 0  -1.35781638  3.80967096 -1.78986703
C 0   1.43582751  1.87140379  3.32191113
H 0   1.43672457  2.88600091  3.70298763
C 0  -1.37898845  0.74609370  3.65570968
H 0  -1.32668824  0.16759911  4.56943471
C 0  -1.43463352 -0.69962065 -2.34049884
H 0  -1.44745693 -1.72243661 -1.99668506
C 0   1.51839112  0.81779202  4.20113081
H 0   1.58389095  0.99835301  5.26640679
C 0   1.59018178  2.83471440 -2.52173664
H 0   1.71033974  3.90893814 -2.54891016
C 0   1.53215984 -0.48541917  3.69307679
H 0   1.61581278 -1.33313772  4.36004668
C 0   1.56330027  2.12450650 -3.70328028
H 0   1.67055906  2.63327641 -4.65120146
C 0   1.43910460  3.13677656 -0.15449784
H 0   1.47551862  4.18090918 -0.44887282
C 0  -1.53183040 -0.48573282 -3.69314018
H 0  -1.61535708 -1.33350526 -4.36006394
C 0   1.37334252  2.91669446  1.17232838
H 0   1.35670736  3.80985499  1.78956641
C 0   1.25770749  0.11321235 -2.44144785
H 0   1.11406626 -0.95266380 -2.44465558
C 0   1.37932458  0.74590932 -3.65577389
H 0   1.32724715  0.16732892 -4.56946386

