%chk=force.chk 
%mem=4GB
%nprocshared=8
#p UM062X/6-311+G** force int=superfine  pop=saveNBO 

Title Card Required

0 1
O -0.71193780  0.00000000 -0.00000000
O  0.71193780  0.00000000  0.00000000
H -0.90172194 -0.94528220 -0.00000000
H  0.90172194  0.46009715  0.82575362

