%chk=opt.chk
%mem=4GB
%nprocshared=8
#p opt UM062X/6-311+G** nosymm int=superfine

Title Card Required

0 2
C -0.70720268 -0.00000000  0.00000000
H -1.11814122 -0.48457010  0.89176581
H -1.02311723  1.04220234 -0.00091804
H -1.11753225 -0.48604336 -0.89118274


