%chk=opt.chk
%mem=16GB
%nprocshared=24
#p opt UM062X/6-311+G** nosymm int=superfine 

Title Card Required

1 2
C -1 -0.30445783  0.00000000  0.00000000
C -1  0.30445783  0.00000000  0.00000000
H 0 -0.83418163  0.00000000  0.00000000
H 0  0.83417624  0.00000000  0.00000000

