%chk=opt.chk
%mem=16GB
%nprocshared=24
#p opt UM062X/6-311+G** nosymm int=superfine 

Title Card Required

1 2
C -1 -0.62134250  0.00000000  0.00000000
C -1  0.62134250  0.00000000  0.00000000
H 0 -1.70241150  0.00000000  0.00000000
H 0  1.70240050  0.00000000  0.00000000

