%chk=opt.chk
%mem=16GB
%nprocshared=24
#p opt UM062X/6-311+G** nosymm int=superfine 

Title Card Required

1 2
C -1 -0.71454387  0.00000000  0.00000000
C -1  0.71454387  0.00000000  0.00000000
H 0 -1.95777322  0.00000000  0.00000000
H 0  1.95776057  0.00000000  0.00000000

