%chk=opt.chk
%mem=16GB
%nprocshared=24
#p opt UM062X/6-311+G** nosymm int=superfine 

Title Card Required

1 2
C -1 -0.77667812  0.00000000  0.00000000
C -1  0.77667812  0.00000000  0.00000000
H 0 -2.12801437  0.00000000  0.00000000
H 0  2.12800062  0.00000000  0.00000000

