%oldchk=../00175/force.chk
%chk=force.chk
%mem=4GB
%nprocshared=8
#p opt UM062X/6-311+G** nosymm int=superfine SCF=(MaxCycle=200,NoVarAcc,noincfock) guess=read

Title Card Required

0 1
C -1.66429600  0.00000000  0.00000000
S  1.66429600  0.00000000  0.00000000

