Graphene                     
   1.00000000000000     
     4.4166015202316249    0.0000000000000000    0.0000000000000000
     -2.2082486968793225    3.8249094676062181    0.0000000000000000
     0.0000000000000000    0.0000000000000000    15.0000000000000000
   C 
     2
Direct
  0.0000000000000000  0.0000000000000000  0.5
  0.6666688455419298  0.3333346372906099  0.5
