%oldchk=force.chk
%chk=nbo.chk
#p UM062X/6-311+G** Pop=NBO Read

NBO Analysis

0 1
S -1.04319129  0.00000000  0.00000000
S  1.04319129  0.00000000  0.00000000
H -1.22683327 -1.33225014 -0.00000000
H  1.22683327  0.02840588  1.33194727

$NBO
ARCHIVE FILE=ethane_nbo.47
$END


