%chk=opt.chk
%mem=4GB
%nprocshared=8
#p opt UM062X/6-311+G** nosymm int=superfine

Title Card Required

0 1
C -1 -1.53521951  0.00000000  0.00000000
S -1  1.53521951  0.00000000  0.00000000
H  0  1.68976646 -1.33222963 -0.00000000
H  0 -1.83938916  1.04535880  0.00291649
H  0 -1.93023025 -0.47661502 -0.89490684
H  0 -1.93014506 -0.48142108  0.89236600

