%chk=opt.chk
%mem=4GB
%nprocshared=8
#p opt UM062X/6-311+G** nosymm int=superfine

Title Card Required

0 1
C -1 -1.71021951  0.00000000  0.00000000
S -1  1.71021951  0.00000000  0.00000000
H  0  1.86476646 -1.33222963 -0.00000000
H  0 -2.01438916  1.04535880  0.00291649
H  0 -2.10523025 -0.47661502 -0.89490684
H  0 -2.10514506 -0.48142108  0.89236600

