%chk=opt.chk
%mem=4GB
%nprocshared=8
#p opt UM062X/6-311+G** nosymm int=superfine

Title Card Required

-1 2
B -1  -1.366404   0.000000   0.000000
B -1  1.366404   0.000000   0.000000
H  0  -2.009183   -0.645933   0.753610
H  0  2.026628   0.680374   -0.706071

