%chk=opt.chk
%mem=4GB
%nprocshared=8
#p opt UM062X/6-311+G** nosymm int=superfine

Title Card Required

-1 2
B -1  -1.341404   0.000000   0.000000
B -1  1.341404   0.000000   0.000000
H  0  -1.560452   -0.366379   -1.168224
H  0  1.665900   1.196572   0.093186

