%chk=opt.chk
%mem=4GB
%nprocshared=8
#p opt UM062X/6-311+G** nosymm int=superfine

Title Card Required

-1 2
B -1  -1.416404   0.000000   0.000000
B -1  1.416404   0.000000   0.000000
H  0  -1.574111   -0.469535   -1.132121
H  0  1.570584   1.221532   -0.105555

