%chk=opt.chk
%mem=4GB
%nprocshared=8
#p opt UM062X/6-311+G** nosymm int=superfine

Title Card Required

-1 2
B -1 -2.14140401  0.00000000  0.00000000
B -1  2.14140401  0.00000000  0.00000000
H  0 -3.32518303 -0.00090417  0.00000000
H  0  3.32518303  0.00090417  0.00000000

