%chk=opt.chk
%mem=4GB
%nprocshared=8
#p opt UM062X/6-311+G** nosymm int=superfine

Title Card Required

0 3
Si  1.11629500 -0.00000000  0.00000000
H  1.84476642  1.27360582  0.00120000
H  1.84478759 -1.27360099 -0.00129500


