Graphene                     
   1.00000000000000     
     3.5530202173930387    0.0000000000000000    0.0000000000000000
     -1.7764682254224715    3.0770221415379631    0.0000000000000000
     0.0000000000000000    0.0000000000000000    15.0000000000000000
   C 
     2
Direct
  0.0000000000000000  0.0000000000000000  0.5
  0.6666688455419298  0.3333346372906099  0.5
