%chk=force.chk 
%mem=4GB
%nprocshared=8
#p UM062X/6-311+G** force int=superfine  pop=saveNBO 

Title Card Required

0 1
C -0.76537700  0.00000000  0.00000000
P  0.76537700  0.00000000  0.00000000
H -1.83881600  0.00000000  0.00000000

