%oldchk=force.chk
%chk=nbo.chk
#p UM062X/6-311+G** Pop=NBO Read

NBO Analysis

0 1
Si -0.97870500 -0.00000000  0.00000000
Si  0.97870500  0.00000000  0.00000000
H -2.43708000 -0.00002676  0.00000000
H  2.43708000  0.00003807  0.00000000

$NBO
ARCHIVE FILE=ethane_nbo.47
$END


