%oldchk=force.chk
%chk=nbo.chk
#p UM062X/6-311+G** Pop=NBO Read

NBO Analysis

0 1
C -0.57239450  0.00000000  0.00000000
N  0.57239450  0.00000000  0.00000000
H -1.64003750  0.00000000  0.00000000

$NBO
ARCHIVE FILE=ethane_nbo.47
$END


