%chk=opt.chk
%mem=4GB
%nprocshared=8
#p opt UM062X/6-311+G** nosymm int=superfine

Title Card Required

0 1
C -1  -2.330452   0.000000   0.000000
P -1  2.330452   0.000000   0.000000
H  0  -3.065277   -0.828353   0.042120
H  0  2.000246   -1.379491   -0.082821
H  0  -2.984304   0.893555   -0.042773

