%chk=force.chk 
%mem=4GB
%nprocshared=8
#p UM062X/6-311+G** force int=superfine  pop=saveNBO 

Title Card Required

0 1
B -0.75341047  0.00000000  0.00000000
B  0.75341047  0.00000000  0.00000000
H -1.92595276 -0.00008027  0.00000000
H  1.92595276  0.00008027  0.00000000

