Graphene                     
   1.00000000000000     
     4.0711689990961899    0.0000000000000000    0.0000000000000000
     -2.0355365082965822    3.5257545371789161    0.0000000000000000
     0.0000000000000000    0.0000000000000000    15.0000000000000000
   C 
     2
Direct
  0.0000000000000000  0.0000000000000000  0.5
  0.6666688455419298  0.3333346372906099  0.5
