%chk=opt.chk
%mem=4GB
%nprocshared=8
#p opt UM062X/6-311+G** nosymm int=superfine 

Title Card Required

0 1
C -1 -0.47881240  0.00000000  0.00000000
C -1  0.47881240  0.00000000  0.00000000
H 0 -1.33033960  0.00000000  0.00000000
H 0  1.33032680  0.00000000  0.00000000

