%chk=opt.chk
%mem=4GB
%nprocshared=8
#p opt UM062X/6-311+G** nosymm int=superfine 

Title Card Required

0 1
C -1 -0.67632251  0.00000000  0.00000000
C -1  0.67632251  0.00000000  0.00000000
H 0 -1.87910468  0.00000000  0.00000000
H 0  1.87908660  0.00000000  0.00000000

