%chk=opt.chk
%mem=4GB
%nprocshared=8
#p opt UM062X/6-311+G** nosymm int=superfine 

Title Card Required

0 1
C -1 -0.73018891  0.00000000  0.00000000
C -1  0.73018891  0.00000000  0.00000000
H 0 -2.02876789  0.00000000  0.00000000
H 0  2.02874837  0.00000000  0.00000000

