%chk=opt.chk
%mem=4GB
%nprocshared=8
#p opt UM062X/6-311+G** nosymm int=superfine 

Title Card Required

0 1
C -1 -0.86784747  0.00000000  0.00000000
C -1  0.86784747  0.00000000  0.00000000
H 0 -2.41124052  0.00000000  0.00000000
H 0  2.41121732  0.00000000  0.00000000

