%chk=opt.chk
%mem=4GB
%nprocshared=8
#p opt UM062X/6-311+G** nosymm int=superfine 

Title Card Required

0 1
C -1 -0.89777325  0.00000000  0.00000000
C -1  0.89777325  0.00000000  0.00000000
H 0 -2.49438675  0.00000000  0.00000000
H 0  2.49436275  0.00000000  0.00000000

