%chk=opt.chk
%mem=4GB
%nprocshared=8
#p opt UM062X/6-311+G** nosymm int=superfine 

Title Card Required

0 1
C -1 -0.95762480  0.00000000  0.00000000
C -1  0.95762480  0.00000000  0.00000000
H 0 -2.66067920  0.00000000  0.00000000
H 0  2.66065360  0.00000000  0.00000000

