Graphene                     
   1.00000000000000     
     4.1451902536252119    0.0000000000000000    0.0000000000000000
     -2.0725462629928835    3.5898591651276237    0.0000000000000000
     0.0000000000000000    0.0000000000000000    15.0000000000000000
   C 
     2
Direct
  0.0000000000000000  0.0000000000000000  0.5
  0.6666688455419298  0.3333346372906099  0.5
