%chk=opt.chk
%mem=4GB
%nprocshared=8
#p opt UM062X/6-311+G** nosymm int=superfine

Title Card Required

0 2
Si  1.16981901  0.00000000  0.00000000
H  1.68180551 -1.39020122  0.00000000
H  1.68190278  0.69518935 -1.20386028
H  1.68171476  0.69504821  1.20402854


