Graphene                     
   1.00000000000000     
     2.7634601690834750    0.0000000000000000    0.0000000000000000
     -1.3816975086619225    2.3932394434184161    0.0000000000000000
     0.0000000000000000    0.0000000000000000    15.0000000000000000
   C 
     2
Direct
  0.0000000000000000  0.0000000000000000  0.5
  0.6666688455419298  0.3333346372906099  0.5
