%chk=opt.chk
%mem=24GB
%nprocshared=28
#p opt UM062X/6-311+G** nosymm int=superfine SCF=(Tight,MaxCycle=200)

Title Card Required

1 2
C -1  -0.99870235  0.00000000  0.00000000
C -1   0.99870235  0.00000000 -0.00000000
C 0   0.00000741 -2.15641600  0.00035500
C 0   0.00001400 -3.53176600  0.00057200
C 0  -0.93110294 -4.32427500  0.27970800
C 0  -0.99790929 -1.48110800  0.26120100
C 0   0.54201412 -5.72058700 -0.16372700
H 0   1.04519718 -6.59818100 -0.31972100
C 0  -1.21217765  0.83924400  1.16049800
C 0  -0.54220600 -5.72054000  0.16439000
H 0  -1.04547059 -6.59809200  0.32024000
C 0   0.93104035 -4.32435700 -0.27879900
C 0   0.99788788 -1.48115600 -0.26092300
C 0   1.37637541  2.25440400 -1.16868900
C 0  -1.21160612  0.30603300 -1.40736600
C 0  -1.55476094  2.91080500  2.39776700
H 0  -1.68626459  3.98261000  2.37971100
C 0  -1.89628271 -3.66420300  0.57630300
H 0  -2.64993482 -4.19797000  0.80625700
C 0  -1.27940812  1.60942100 -1.98926600
C 0   1.91971788 -2.23542700 -0.55533500
H 0   2.69752247 -1.73401000 -0.73946300
C 0   1.21176012  0.30612000  1.40730900
C 0   1.27944765  1.60950600  1.98921100
C 0   1.89615259 -3.66436000 -0.57587200
H 0   2.64972565 -4.19817900 -0.80608800
C 0  -1.37694859  2.25426600  1.16871200
C 0  -1.20557376  0.19487900  2.42776200
H 0  -1.05395541 -0.86727000  2.47572600
C 0   1.32221600 -0.78817100  2.31078900
H 0   1.30648576 -1.80013300  1.93766400
C 0  -1.56701753  2.24305700  3.60206400
H 0  -1.71047224  2.78230300  4.52521400
C 0  -1.91980929 -2.23527500  0.55555000
H 0  -2.69763365 -1.73379100  0.73935900
C 0  -1.39873094  1.73853600 -3.38703700
H 0  -1.43210776  2.73906600 -3.80157800
C 0   1.21212247  0.83928600 -1.16052200
C 0  -1.33901929  3.13328800  0.02989000
H 0  -1.37921412  4.18685100  0.28738700
C 0  -1.49782788  0.65295200 -4.22298900
H 0  -1.60509506  0.79238800 -5.28919700
C 0  -1.27265353  2.86449500 -1.28690100
H 0  -1.26237753  3.73278800 -1.93870900
C 0   1.39933624  1.73861300  3.38691600
H 0   1.43267929  2.73914300  3.80146400
C 0  -1.38072859  0.86412900  3.61171400
H 0  -1.36552294  0.31624300  4.54594900
C 0  -1.32167165 -0.78825600 -2.31093200
H 0  -1.30595376 -1.80022700 -1.93784700
C 0   1.49893965  0.65303000  4.22277600
H 0   1.60662847  0.79245400  5.28892300
C 0   1.55415729  2.91106900 -2.39767900
H 0   1.68522612  3.98295200 -2.37956000
C 0   1.47334024 -0.62738900  3.66585200
H 0   1.56963800 -1.50257400  4.29316200
C 0   1.56689482  2.24335300 -3.60198400
H 0   1.71035529  2.78267900 -4.52508500
C 0   1.33778647  3.13343700 -0.02990000
H 0   1.37717753  4.18703300 -0.28744400
C 0  -1.47234376 -0.62746600 -3.66607200
H 0  -1.56834588 -1.50265200 -4.29345000
C 0   1.27180694  2.86460000  1.28690700
H 0   1.26105000  3.73287300  1.93872900
C 0   1.20580847  0.19499300 -2.42782300
H 0   1.05437129 -0.86718000 -2.47590300
C 0   1.38099459  0.86435600 -3.61171000
H 0   1.36608788  0.31649400 -4.54596700

