%chk=force.chk 
%mem=4GB
%nprocshared=8
#p UM062X/6-311+G** force int=superfine  pop=saveNBO 

Title Card Required

0 1
O -0.83939168  0.00000000 -0.00000000
S  0.83939168 -0.00000000  0.00000000
H -1.14108385 -0.91346790  0.00000000
H  1.01575962  0.08293886  1.33262176

