%chk=opt.chk
%mem=4GB
%nprocshared=8
#p opt=calcall UM062X/6-311+G** int=superfine 

Title Card Required

1 2
C  0.000000    0.000000   -0.621342
C  0.000000    0.000000    0.621343
H  0.000000    0.000000   -1.702411
H  0.000000    0.000000    1.702401

