%chk=force.chk 
%mem=4GB
%nprocshared=8
#p UM062X/6-311+G** force int=superfine  pop=saveNBO 

Title Card Required

0 1
P -1.00948966  0.00000000  0.00000000
P  1.00948966  0.00000000  0.00000000
H -1.11235064 -1.41725510  0.00000000
H  1.11235064  1.41725510  0.00000000

