%chk=opt.chk
%mem=4GB
%nprocshared=8
#p opt UM062X/6-311+G** nosymm int=superfine

Title Card Required

1 2
Si -1.426672 0.000000 -0.000000
Si 1.426672 -0.000000 -0.000000
H   1.485743   -0.936832   0.542231
H   -1.484249   -0.937931   -0.540431
H   1.485130   0.938036   0.540185
H   1.484392   -0.001152   -1.082495
H   -1.485681   0.936911   -0.542078
H   -1.485026   0.000919   1.082457

