%oldchk=../00180/opt.chk
%chk=opt.chk
%mem=4GB
%nprocshared=8
#p opt UM062X/6-311+G** nosymm int=superfine SCF=(MaxCycle=200,NoVarAcc,noincfock) guess=read

Title Card Required

0 1
B -1  -1.620399   0.000000   0.000000
N -1  1.620399   0.000000   0.000000
H  0  -2.099165   -1.076259   0.000479
H  0  2.134050   0.870253   -0.000541
H  0  -2.099165   1.076259   0.000220
H  0  2.134049   -0.870254   -0.000310

