%chk=opt.chk
%mem=4GB
%nprocshared=8
#p opt UM062X/6-311+G** nosymm int=superfine

Title Card Required

0 1
B   1.090710   0.000114   -0.000049
H   1.298299   -1.028543   0.595190
H   1.298018   1.030008   0.593151
H   1.297782   -0.001036   -1.188601


