%chk=opt.chk
%mem=4GB
%nprocshared=8
#p opt UM062X/6-311+G** nosymm int=superfine

Title Card Required

0 2
S  0.91021951  0.00000000  0.00000000
H  1.06476646 -1.33222963 -0.00000000


