%chk=opt.chk
%mem=24GB
%nprocshared=28
#p opt UM062X/6-311+G** nosymm int=superfine 

Title Card Required

1 2
C -1  -1.66916270  0.00000000  0.00000000
C -1   1.66916270  0.00000000 -0.00000000
C 0  -0.00000916 -2.05545100 -0.00218400
C 0  -0.00001831 -3.45663400 -0.00371000
C 0  -1.15260261 -4.28964700  0.19341900
C 0  -1.34530771 -1.46623300  0.16419700
C 0   0.67613486 -5.68273300 -0.12500700
H 0   1.31967556 -6.55103000 -0.24207000
C 0  -1.68992663  0.76445700  1.22074200
C 0  -0.67620506 -5.68298300  0.11278600
H 0  -1.31973355 -6.55152100  0.22810600
C 0   1.15255174 -4.28923100 -0.20263200
C 0   1.34528737 -1.46588400 -0.16727800
C 0   1.81673530  2.19168900 -1.33769900
C 0  -1.78386746  0.40953900 -1.37420600
C 0  -1.87352405  2.76908500  2.62285300
H 0  -1.98735793  3.84514500  2.68868800
C 0  -2.38860282 -3.70308600  0.41334100
H 0  -3.30630910 -4.27951100  0.58257000
C 0  -1.77597759  1.75683100 -1.86867700
C 0   2.45306677 -2.28649400 -0.38846300
H 0   3.43960975 -1.81328700 -0.50709000
C 0   1.78390002  0.40665600  1.37505900
C 0   1.77601523  1.75290300  1.87236300
C 0   2.38858857 -3.70220600 -0.42113800
H 0   3.30630402 -4.27827200 -0.59153800
C 0  -1.81695710  2.18886500  1.34229400
C 0  -1.54255547  0.04225000  2.44254900
H 0  -1.39848676 -1.02702500  2.40771200
C 0   1.85593539 -0.62790300  2.36195200
H 0   1.89159903 -1.65906400  2.04521500
C 0  -1.78177163  2.02407800  3.78017400
H 0  -1.83858582  2.50708000  4.74815100
C 0  -2.45307287 -2.28730400  0.38372300
H 0  -3.43960466 -1.81434400  0.50342700
C 0  -1.79814858  1.98025300 -3.26008800
H 0  -1.77362742  3.00602900 -3.60919500
C 0   1.68988797  0.76701800 -1.21914100
C 0  -1.81893694  3.13594400  0.25924100
H 0  -1.84688671  4.17143300  0.58431100
C 0  -1.86781852  0.95518900 -4.17545700
H 0  -1.90139243  1.17003200 -5.23669600
C 0  -1.76839294  2.95542500 -1.07578900
H 0  -1.75129466  3.86784300 -1.66423700
C 0   1.79839072  1.97339900  3.26423800
H 0   1.77390313  2.99843800  3.61550800
C 0  -1.59385844  0.64359400  3.67979400
H 0  -1.48614723  0.03773200  4.57151700
C 0  -1.85582857 -0.62294000 -2.36327900
H 0  -1.89155426 -1.65476100 -2.04870200
C 0   1.86820106  0.94641300  4.17744200
H 0   1.90194895  1.15903100  5.23912300
C 0   1.87330430  2.77460400 -2.61703400
H 0   1.98699167  3.85081600 -2.68059700
C 0   1.91438554 -0.37237300  3.71002300
H 0   1.99171033 -1.19837700  4.40661800
C 0   1.78174315  2.03201600 -3.77592100
H 0   1.83858073  2.51705500 -4.74287700
C 0   1.81848318  3.13649300 -0.25265600
H 0   1.84613588  4.17267000 -0.57555100
C 0  -1.91411390 -0.36457400 -3.71081600
H 0  -1.99140918 -1.18910900 -4.40915300
C 0   1.76810298  2.95316000  1.08199600
H 0   1.75085515  3.86433700  1.67236000
C 0   1.54262974  0.04736400 -2.44246500
H 0   1.39864852 -1.02199400 -2.40988200
C 0   1.59396120  0.65130400 -3.67844300
H 0   1.48636597  0.04729700 -4.57143800

