%oldchk=force.chk
%chk=nbo.chk
#p UM062X/6-311+G** Pop=NBO Read

NBO Analysis

0 1
C -0.59831100  0.00000000 -0.00000000
O  0.59831100  0.00000000 -0.00000000
H -1.18020644 -0.93929902  0.00000000
H -1.18021258  0.93929601  0.00000052

$NBO
ARCHIVE FILE=ethane_nbo.47
$END


