%chk=opt.chk
%mem=4GB
%nprocshared=8
#p opt b3lyp/6-311+G** nosymm int=superfine

Title Card Required

0 2
S   0.839392   0.000000   0.000000
H   1.015760   0.082939   1.332622

