Graphene                     
   1.00000000000000     
     3.1335664417285827    0.0000000000000000    0.0000000000000000
     -1.5667462821434299    2.7137625831619538    0.0000000000000000
     0.0000000000000000    0.0000000000000000    15.0000000000000000
   C 
     2
Direct
  0.0000000000000000  0.0000000000000000  0.5
  0.6666688455419298  0.3333346372906099  0.5
