%chk=opt.chk
%mem=4GB
%nprocshared=8
#p opt UM062X/6-311+G** nosymm int=superfine

Title Card Required

0 1
P -1  -2.292217   0.000000   0.000000
P -1  2.292217   0.000000   0.000000
H  0  2.225928   -0.924364   1.074186
H  0  -2.165843   0.972035   1.004553
H  0  2.228239   -1.036243   -0.955478
H  0  -2.118129   0.969303   -1.022948

