%chk=opt.chk
%mem=4GB
%nprocshared=8
#p opt UM062X/6-311+G** nosymm int=superfine

Title Card Required

0 1
P -1 -2.46721652 -0.00000000  0.00000000
P -1  2.46721652  0.00000000  0.00000000
H  0  2.58405294 -1.40926420  0.00000000
H  0 -2.58406894  1.39816272 -0.17652327
H  0  2.70726494  0.11793735 -1.38980210
H  0 -2.70726503 -0.29110265 -1.36408209

