%chk=opt.chk
%mem=4GB
%nprocshared=8
#p opt UM062X/6-311+G** nosymm int=superfine

Title Card Required

0 1
P -1  -2.517217   0.000000   0.000000
P -1  2.517217   0.000000   0.000000
H  0  2.393183   -1.021501   0.976960
H  0  -2.400142   1.097068   0.892345
H  0  2.403670   -0.936626   -1.060034
H  0  -2.405008   0.849524   -1.131040

