%chk=opt.chk
%mem=4GB
%nprocshared=8
#p UM062X/6-311+G** force int=superfine 

Title Card Required

1 2
N  -1 0.580391   0.000000   0.000000
N  -1 -0.580391   0.000000   0.000000

