%chk=opt.chk
%mem=4GB
%nprocshared=8
#p UM062X/6-311+G** force int=superfine 

Title Card Required

1 2
N -1  0.78039100  0.00000000  0.00000000
N -1 -0.78039100  0.00000000  0.00000000

