%chk=opt.chk
%mem=24GB
%nprocshared=28
#p opt UM062X/6-311+G** nosymm int=superfine 

Title Card Required

1 2
C -1  -1.88314754  0.00000000 -0.00000000
C -1   1.88314754  0.00000000 -0.00000000
C 0  -0.00014520 -1.98856500 -0.00626500
C 0   0.00001422 -3.39883100 -0.01071700
C 0  -1.13674135 -4.24606900  0.22573300
C 0  -1.37034175 -1.42477300  0.18087700
C 0   0.66871606 -5.63715200 -0.16281300
H 0   1.31003603 -6.50179000 -0.30831200
C 0  -1.90072385  0.78920500  1.20146600
C 0  -0.66831905 -5.63816300  0.12703300
H 0  -1.30952834 -6.50380800  0.26692800
C 0   1.13690280 -4.24438900 -0.25267800
C 0   1.36996098 -1.42348500 -0.19007300
C 0   2.39060022  2.14234500 -1.32746000
C 0  -2.14430649  0.35445900 -1.36980700
C 0  -2.35307668  2.75022300  2.60467900
H 0  -2.74182886  3.76040100  2.68886500
C 0  -2.36719458 -3.68227900  0.49339100
H 0  -3.26705483 -4.27011000  0.70123600
C 0  -2.56707406  1.63923000 -1.85430600
C 0   2.44687283 -2.26839800 -0.46237000
H 0   3.43717135 -1.81229400 -0.59929500
C 0   2.14432883  0.34580200  1.37186900
C 0   2.56831080  1.62727300  1.86419900
C 0   2.36720880 -3.67874100 -0.51698800
H 0   3.26713403 -4.26508000 -0.72872400
C 0  -2.38697123  2.13502500  1.34065100
C 0  -1.37666049  0.17930900  2.38518300
H 0  -1.00065240 -0.83322500  2.33620100
C 0   1.93282218 -0.66985100  2.35708400
H 0   1.66570292 -1.66852200  2.04270600
C 0  -1.83684295  2.12232200  3.72278700
H 0  -1.82574886  2.63208100  4.67823000
C 0  -2.44709926 -2.27164700  0.44763000
H 0  -3.43747394 -1.81652600  0.58725300
C 0  -2.67683206  1.84911600 -3.24158500
H 0  -2.98862317  2.83007500 -3.58446800
C 0   1.90122443  0.79678700 -1.19631800
C 0  -2.90456557  2.96691100  0.28298800
H 0  -3.27423766  3.93177600  0.62145700
C 0  -2.42531825  0.85593900 -4.16481800
H 0  -2.53062378  1.05634400 -5.22425100
C 0  -2.95311314  2.77043900 -1.04890800
H 0  -3.35013055  3.60329000 -1.62464100
C 0   2.67698538  1.82886600  3.25283500
H 0   2.98951062  2.80743600  3.60182900
C 0  -1.33468449  0.82120100  3.60110800
H 0  -0.91960948  0.30660300  4.46211700
C 0  -1.93430871 -0.65537200 -2.36124400
H 0  -1.66781695 -1.65615300 -2.05310600
C 0   2.42360022  0.83046500  4.16983900
H 0   2.52805182  1.02450400  5.23054200
C 0   2.35753523  2.76528700 -2.58776500
H 0   2.74893148  3.77493500 -2.66614300
C 0   2.06846843 -0.44137400  3.70613100
H 0   1.90218092 -1.25390600  4.40380800
C 0   1.83854169  2.14556700 -3.70912400
H 0   1.82791874  2.66123700 -4.66140000
C 0   2.91031062  2.96658800 -0.26502200
H 0   3.28262372  3.93248100 -0.59768800
C 0  -2.07079569 -0.41881300 -3.70888900
H 0  -1.90573477 -1.22739400 -4.41143000
C 0   2.95726809  2.76231300  1.06583900
H 0   3.35561465  3.59095800  1.64672700
C 0   1.37447335  0.19544800 -2.38328500
H 0   0.99592985 -0.81642800 -2.34013300
C 0   1.33278471  0.84503700 -3.59505800
H 0   0.91517123  0.33701200 -4.45876200

