%chk=opt.chk
%mem=24GB
%nprocshared=28
#p opt UM062X/6-311+G** nosymm int=superfine SCF=(Tight,MaxCycle=200)

Title Card Required

1 2
C -1  -0.98443518  0.00000000  0.00000000
C -1   0.98443518  0.00000000 -0.00000000
C 0   0.00000731 -2.15641600  0.00035500
C 0   0.00001380 -3.53176600  0.00057200
C 0  -0.91780147 -4.32427500  0.27970800
C 0  -0.98365345 -1.48110800  0.26120100
C 0   0.53427106 -5.72058700 -0.16372700
H 0   1.03026579 -6.59818100 -0.31972100
C 0  -1.19486082  0.83924400  1.16049800
C 0  -0.53446020 -5.72054000  0.16439000
H 0  -1.03053529 -6.59809200  0.32024000
C 0   0.91773978 -4.32435700 -0.27879900
C 0   0.98363234 -1.48115600 -0.26092300
C 0   1.35671291  2.25440400 -1.16868900
C 0  -1.19429746  0.30603300 -1.40736600
C 0  -1.53255007  2.91080500  2.39776700
H 0  -1.66217509  3.98261000  2.37971100
C 0  -1.86919295 -3.66420300  0.57630300
H 0  -2.61207861 -4.19797000  0.80625700
C 0  -1.26113086  1.60942100 -1.98926600
C 0   1.89229334 -2.23542700 -0.55533500
H 0   2.65898644 -1.73401000 -0.73946300
C 0   1.19444926  0.30612000  1.40730900
C 0   1.26116982  1.60950600  1.98921100
C 0   1.86906469 -3.66436000 -0.57587200
H 0   2.61187242 -4.19817900 -0.80608800
C 0  -1.35727789  2.25426600  1.16871200
C 0  -1.18835128  0.19487900  2.42776200
H 0  -1.03889891 -0.86727000  2.47572600
C 0   1.30332720 -0.78817100  2.31078900
H 0   1.28782168 -1.80013300  1.93766400
C 0  -1.54463156  2.24305700  3.60206400
H 0  -1.68603692  2.78230300  4.52521400
C 0  -1.89238345 -2.23527500  0.55555000
H 0  -2.65909602 -1.73379100  0.73935900
C 0  -1.37874907  1.73853600 -3.38703700
H 0  -1.41164908  2.73906600 -3.80157800
C 0   1.19480644  0.83928600 -1.16052200
C 0  -1.31989045  3.13328800  0.02989000
H 0  -1.35951106  4.18685100  0.28738700
C 0  -1.47643034  0.65295200 -4.22298900
H 0  -1.58216513  0.79238800 -5.28919700
C 0  -1.25447276  2.86449500 -1.28690100
H 0  -1.24434356  3.73278800 -1.93870900
C 0   1.37934572  1.73861300  3.38691600
H 0   1.41221245  2.73914300  3.80146400
C 0  -1.36100389  0.86412900  3.61171400
H 0  -1.34601547  0.31624300  4.54594900
C 0  -1.30279062 -0.78825600 -2.31093200
H 0  -1.28729728 -1.80022700 -1.93784700
C 0   1.47752622  0.65303000  4.22277600
H 0   1.58367664  0.79245400  5.28892300
C 0   1.53195505  2.91106900 -2.39767900
H 0   1.66115146  3.98295200 -2.37956000
C 0   1.45229252 -0.62738900  3.66585200
H 0   1.54721460 -1.50257400  4.29316200
C 0   1.54451061  2.24335300 -3.60198400
H 0   1.68592165  2.78267900 -4.52508500
C 0   1.31867524  3.13343700 -0.02990000
H 0   1.35750356  4.18703300 -0.28744400
C 0  -1.45131028 -0.62746600 -3.66607200
H 0  -1.54594094 -1.50265200 -4.29345000
C 0   1.25363827  2.86460000  1.28690700
H 0   1.24303500  3.73287300  1.93872900
C 0   1.18858264  0.19499300 -2.42782300
H 0   1.03930885 -0.86718000 -2.47590300
C 0   1.36126609  0.86435600 -3.61171000
H 0   1.34657234  0.31649400 -4.54596700

