%chk=opt.chk
%mem=4GB
%nprocshared=8
#p opt UM062X/6-311+G** nosymm int=superfine

Title Card Required

1 1
C -0.79442700  0.00000000  0.00000000
H -1.87918400  0.00000000  0.00000000


