%chk=opt.chk
%mem=4GB
%nprocshared=8
#p UM062X/6-311+G** force int=superfine 

Title Card Required

0 1
N -0.71154000  0.00000000  0.00000000
N  0.71154000  0.00000000 -0.00000000
H -1.02739016 -0.96125236  0.00000000
H  1.02738814  0.82258562 -0.49735193
H -1.10418155  0.46933657  0.80974950
H  1.10418045  0.01733258  0.93577204

