%chk=opt.chk
%mem=4GB
%nprocshared=8
#p opt UM062X/6-311+G** nosymm int=superfine

Title Card Required

0 1
N -1 -1.21154000  0.00000000  0.00000000
N -1  1.21154000  0.00000000 -0.00000000
H  0 -1.52739016 -0.96125236  0.00000000
H  0  1.52738814  0.82258562 -0.49735193
H  0 -1.60418155  0.46933657  0.80974950
H  0  1.60418045  0.01733258  0.93577204

