Graphene                     
   1.00000000000000     
     4.1205165021155379    0.0000000000000000    0.0000000000000000
     -2.0602096780941164    3.5684909558113875    0.0000000000000000
     0.0000000000000000    0.0000000000000000    15.0000000000000000
   C 
     2
Direct
  0.0000000000000000  0.0000000000000000  0.5
  0.6666688455419298  0.3333346372906099  0.5
