%chk=opt.chk
%mem=4GB
%nprocshared=8
#p opt UM062X/6-311+G** nosymm int=superfine

Title Card Required

0 1
O -1 -0.86439168  0.00000000 -0.00000000
S -1  0.86439168 -0.00000000  0.00000000
H  0 -1.16608385 -0.91346790  0.00000000
H  0  1.04075962  0.08293886  1.33262176

