%chk=force.chk 
%mem=4GB
%nprocshared=8
#p UM062X/6-311+G** force int=superfine  pop=saveNBO 

Title Card Required

1 2
Si -1.11629500  0.00000000 -0.00000000
Si  1.11629500 -0.00000000  0.00000000
H -1.84476642 -1.27360581  0.00000000
H  1.84476642  1.27360582  0.00120000
H -1.84478759  1.27360113 -0.00009500
H  1.84478759 -1.27360099 -0.00129500

