%chk=opt.chk
%mem=4GB
%nprocshared=8
#p opt UM062X/6-311+G** nosymm int=superfine

Title Card Required

1 2
Si -1  -1.766295   0.000000   0.000000
Si -1  1.766295   0.000000   0.000000
H  0  -2.671359   -1.179954   0.000340
H  0  2.003293   1.245640   -0.764655
H  0  -2.671544   1.179809   -0.002329
H  0  2.003052   -1.243731   -0.767829

