%oldchk=../00165/opt.chk
%chk=opt.chk
%mem=4GB
%nprocshared=8
#p opt UM062X/6-311+G** nosymm int=superfine SCF=(MaxCycle=200,NoVarAcc,noincfock) guess=read

Title Card Required

-1 2
B -1  -1.622274   0.000000   0.000000
B -1  1.622274   0.000000   0.000000
H  0  -1.864195   -1.041341   -0.525132
H  0  2.249675   1.001803   0.243118
H  0  -1.864266   1.041048   -0.525665
H  0  2.249717   -1.001607   0.243863

