%oldchk=../00155/opt.chk
%chk=opt.chk
%mem=4GB
%nprocshared=8
#p opt UM062X/6-311+G** nosymm int=superfine SCF=(MaxCycle=200,NoVarAcc,noincfock) guess=read

Title Card Required

-1 2
B -1  -1.647274   0.000000   0.000000
B -1  1.647274   0.000000   0.000000
H  0  -2.054572   -1.126986   -0.087790
H  0  2.042978   1.126974   0.130529
H  0  -2.054539   1.128566   -0.064576
H  0  2.042944   -1.123965   0.154389

