%oldchk=../00180/opt.chk
%chk=opt.chk
%mem=4GB
%nprocshared=8
#p opt UM062X/6-311+G** nosymm int=superfine SCF=(MaxCycle=200,NoVarAcc,noincfock) guess=read

Title Card Required

-1 2
B -1  -1.697274   0.000000   0.000000
B -1  1.697274   0.000000   0.000000
H  0  -1.867738   -1.094795   -0.529174
H  0  1.818424   1.033155   0.475853
H  0  -1.867538   1.094429   -0.530080
H  0  1.818427   -1.033089   0.475966


