Graphene                     
   1.00000000000000     
     3.4049777083349952    0.0000000000000000    0.0000000000000000
     -1.7024487160298685    2.9488128856405478    0.0000000000000000
     0.0000000000000000    0.0000000000000000    15.0000000000000000
   C 
     2
Direct
  0.0000000000000000  0.0000000000000000  0.5
  0.6666688455419298  0.3333346372906099  0.5
