%chk=force.chk 
%mem=4GB
%nprocshared=8
#p UM062X/6-311+G** force int=superfine  pop=saveNBO 

Title Card Required

0 1
C -0.59831100  0.00000000 -0.00000000
O  0.59831100  0.00000000 -0.00000000
H -1.18020644 -0.93929902  0.00000000
H -1.18021258  0.93929601  0.00000052

