%chk=opt.chk
%mem=4GB
%nprocshared=8
#p opt UM062X/6-311+G** nosymm int=superfine

Title Card Required

0 1
C -1 -1.04831100  0.00000000 -0.00000000
O -1  1.04831100  0.00000000 -0.00000000
H  0 -1.63020644 -0.93929902  0.00000000
H  0 -1.63021258  0.93929601  0.00000052

