%chk=opt.chk
%mem=4GB
%nprocshared=8
#p opt UM062X/6-311+G** nosymm int=superfine

Title Card Required

0 1
C -1 -2.02331100  0.00000000 -0.00000000
O -1  2.02331100  0.00000000 -0.00000000
H  0 -2.60520644 -0.93929902  0.00000000
H  0 -2.60521258  0.93929601  0.00000052

