%chk=opt.chk
%mem=4GB
%nprocshared=8
#p opt UM062X/6-311+G** nosymm int=superfine

Title Card Required

0 1
C -1 -1.10213956  0.00000000  0.00000000
S -1  1.10213956 -0.00000000  0.00000000
H  0 -1.67778175 -0.92503703  0.00000000
H  0 -1.67889620  0.92433870 -0.00015231

