%chk=opt.chk
%mem=4GB
%nprocshared=8
#p opt UM062X/6-311+G** nosymm int=superfine

Title Card Required

1 2
Si -1  -1.177975   -0.000000   -0.000000
Si -1  1.177975   -0.000000   0.000000
H  0  0.068565   -1.114132   -0.438862
H  0  2.266076   -0.876424   0.447802

