%chk=opt.chk
%mem=4GB
%nprocshared=8
#p opt UM062X/6-311+G** nosymm int=superfine

Title Card Required

1 2
Si -1  -1.152975   0.000000   -0.000000
Si -1  1.152975   0.000000   0.000000
H  0  0.053170   -1.027894   0.747770
H  0  2.506945   -0.636041   0.157406

