%chk=opt.chk
%mem=4GB
%nprocshared=8
#p opt UM062X/6-311+G** nosymm int=superfine

Title Card Required

1 2
Si -1  -1.227975   0.000000   0.000000
Si -1  1.227975   0.000000   -0.000000
H  0  -0.054418   -1.157880   -0.301160
H  0  2.387638   -0.903376   0.091347

