%chk=opt.chk
%mem=4GB
%nprocshared=8
#p opt UM062X/6-311+G** nosymm int=superfine

Title Card Required

1 2
Si -1  -1.202975   -0.000000   0.000000
Si -1  1.202975   0.000000   0.000000
H  0  -0.020956   -1.136581   -0.469424
H  0  2.307683   -0.385377   -0.905797

