%chk=opt.chk
%mem=4GB
%nprocshared=8
#p opt UM062X/6-311+G** nosymm int=superfine

Title Card Required

1 2
Si -1  -1.277975   -0.000000   0.000000
Si -1  1.277975   0.000000   -0.000000
H  0  -0.075087   -0.890467   -0.655363
H  0  1.946181   -1.173248   0.722475

