%chk=opt.chk
%mem=4GB
%nprocshared=8
#p opt UM062X/6-311+G** nosymm int=superfine

Title Card Required

1 2
Si -1  -1.252975   0.000000   0.000000
Si -1  1.252975   0.000000   0.000000
H  0  -0.084278   -1.122925   -0.568862
H  0  2.064048   -1.049766   0.680392

