%chk=opt.chk
%mem=4GB
%nprocshared=8
#p opt UM062X/6-311+G** nosymm int=superfine

Title Card Required

1 2
Si -1  -1.302975   0.000000   0.000000
Si -1  1.302975   0.000000   0.000000
H  0  -1.026787   -1.493536   -0.001807
H  0  2.781669   0.141316   -0.001842

