%chk=opt.chk
%mem=4GB
%nprocshared=8
#p opt UM062X/6-311+G** nosymm int=superfine

Title Card Required

1 2
Si -1  -1.327975   0.000000   0.000000
Si -1  1.327975   0.000000   0.000000
H  0  -0.935284   -1.478284   -0.008796
H  0  2.788440   0.315415   -0.002685

