%chk=opt.chk
%mem=4GB
%nprocshared=8
#p opt UM062X/6-311+G** nosymm int=superfine

Title Card Required

1 2
Si -1 -1.40297457  0.00000000  0.00000000
Si -1  1.40297457  0.00000000  0.00000000
H  0 -1.97439957 -1.37462879  0.00000000
H  0  2.38930572  1.10448803  0.00000000

