%chk=opt.chk
%mem=4GB
%nprocshared=8
#p opt UM062X/6-311+G** nosymm int=superfine

Title Card Required

1 2
Si -1 -2.30297457  0.00000000  0.00000000
Si -1  2.30297457  0.00000000  0.00000000
H  0 -2.87439957 -1.37462879  0.00000000
H  0  3.28930572  1.10448803  0.00000000

