%chk=opt.chk
%mem=4GB
%nprocshared=8
#p opt UM062X/6-311+G** nosymm int=superfine

Title Card Required

1 2
Si -1 -2.60297457  0.00000000  0.00000000
Si -1  2.60297457  0.00000000  0.00000000
H  0 -3.17439957 -1.37462879  0.00000000
H  0  3.58930572  1.10448803  0.00000000

