Graphene                     
   1.00000000000000     
     5.1568140655218402    0.0000000000000000    0.0000000000000000
     -2.5783462438423372    4.4659557470932931    0.0000000000000000
     0.0000000000000000    0.0000000000000000    15.0000000000000000
   C 
     2
Direct
  0.0000000000000000  0.0000000000000000  0.5
  0.6666688455419298  0.3333346372906099  0.5
