%chk=opt.chk
%mem=16GB
%nprocshared=28
#p opt UM062X/6-311+G** nosymm int=superfine

Title Card Required

1 2
C -1 -0.59920224  0.00000000 -0.00000000
C -1  0.59920224 -0.00000000 -0.00000000
H 0  0.62401206 -0.93683200  0.54223100
H 0 -0.62338458 -0.93793100 -0.54043100
H 0  0.62375460  0.93803600  0.54018500
H 0  0.62344464 -0.00115200 -1.08249500
H 0 -0.62398602  0.93691100 -0.54207800
H 0 -0.62371092  0.00091900  1.08245700

