Graphene                     
   1.00000000000000     
     5.2555090715605361    0.0000000000000000    0.0000000000000000
     -2.6276925834374061    4.5514285843582369    0.0000000000000000
     0.0000000000000000    0.0000000000000000    15.0000000000000000
   C 
     2
Direct
  0.0000000000000000  0.0000000000000000  0.5
  0.6666688455419298  0.3333346372906099  0.5
