%chk=opt.chk
%mem=24GB
%nprocshared=28
#p opt UM062X/6-311+G** nosymm int=superfine SCF=(Tight,MaxCycle=200)

Title Card Required

1 2
C -1  -1.08430541  0.00000000  0.00000000
C -1   1.08430541  0.00000000 -0.00000000
C 0   0.00000805 -2.15641600  0.00035500
C 0   0.00001520 -3.53176600  0.00057200
C 0  -1.01091176 -4.32427500  0.27970800
C 0  -1.08344438 -1.48110800  0.26120100
C 0   0.58847247 -5.72058700 -0.16372700
H 0   1.13478551 -6.59818100 -0.31972100
C 0  -1.31607859  0.83924400  1.16049800
C 0  -0.58868080 -5.72054000  0.16439000
H 0  -1.13508235 -6.59809200  0.32024000
C 0   1.01084381 -4.32435700 -0.27879900
C 0   1.08342113 -1.48115600 -0.26092300
C 0   1.49435045  2.25440400 -1.16868900
C 0  -1.31545807  0.30603300 -1.40736600
C 0  -1.68802616  2.91080500  2.39776700
H 0  -1.83080155  3.98261000  2.37971100
C 0  -2.05882122 -3.66420300  0.57630300
H 0  -2.87707209 -4.19797000  0.80625700
C 0  -1.38907167  1.60942100 -1.98926600
C 0   2.08426513 -2.23542700 -0.55533500
H 0   2.92873868 -1.73401000 -0.73946300
C 0   1.31562527  0.30612000  1.40730900
C 0   1.38911459  1.60950600  1.98921100
C 0   2.05867995 -3.66436000 -0.57587200
H 0   2.87684499 -4.19817900 -0.80608800
C 0  -1.49497275  2.25426600  1.16871200
C 0  -1.30890866  0.19487900  2.42776200
H 0  -1.14429445 -0.86727000  2.47572600
C 0   1.43554880 -0.78817100  2.31078900
H 0   1.41847026 -1.80013300  1.93766400
C 0  -1.70133332  2.24305700  3.60206400
H 0  -1.85708414  2.78230300  4.52521400
C 0  -2.08436438 -2.23527500  0.55555000
H 0  -2.92885939 -1.73379100  0.73935900
C 0  -1.51862216  1.73853600 -3.38703700
H 0  -1.55485986  2.73906600 -3.80157800
C 0   1.31601868  0.83928600 -1.16052200
C 0  -1.45379238  3.13328800  0.02989000
H 0  -1.49743247  4.18685100  0.28738700
C 0  -1.62621313  0.65295200 -4.22298900
H 0  -1.74267464  0.79238800 -5.28919700
C 0  -1.38173812  2.86449500 -1.28690100
H 0  -1.37058132  3.73278800 -1.93870900
C 0   1.51927934  1.73861300  3.38691600
H 0   1.55548038  2.73914300  3.80146400
C 0  -1.49907675  0.86412900  3.61171400
H 0  -1.48256776  0.31624300  4.54594900
C 0  -1.43495779 -0.78825600 -2.31093200
H 0  -1.41789266 -1.80022700 -1.93784700
C 0   1.62742019  0.65303000  4.22277600
H 0   1.74433948  0.79245400  5.28892300
C 0   1.68737078  2.91106900 -2.39767900
H 0   1.82967407  3.98295200 -2.37956000
C 0   1.59962654 -0.62738900  3.66585200
H 0   1.70417840 -1.50257400  4.29316200
C 0   1.70120009  2.24335300 -3.60198400
H 0   1.85695718  2.78267900 -4.52508500
C 0   1.45245388  3.13343700 -0.02990000
H 0   1.49522132  4.18703300 -0.28744400
C 0  -1.59854466 -0.62746600 -3.66607200
H 0  -1.70277553 -1.50265200 -4.29345000
C 0   1.38081896  2.86460000  1.28690700
H 0   1.36914000  3.73287300  1.93872900
C 0   1.30916348  0.19499300 -2.42782300
H 0   1.14474598 -0.86718000 -2.47590300
C 0   1.49936555  0.86435600 -3.61171000
H 0   1.48318113  0.31649400 -4.54596700

