Graphene                     
   1.00000000000000     
     3.4789989628640177    0.0000000000000000    0.0000000000000000
     -1.7394584707261704    3.0129175135892559    0.0000000000000000
     0.0000000000000000    0.0000000000000000    15.0000000000000000
   C 
     2
Direct
  0.0000000000000000  0.0000000000000000  0.5
  0.6666688455419298  0.3333346372906099  0.5
