%chk=opt.chk
%mem=4GB
%nprocshared=8
#p opt UM062X/6-311+G** nosymm int=superfine 

Title Card Required

0 1
C -1 -0.47282725  0.00000000  0.00000000
C -1  0.47282725  0.00000000  0.00000000
H 0 -1.31371035  0.00000000  0.00000000
H 0  1.31369771  0.00000000  0.00000000

