%chk=opt.chk
%mem=4GB
%nprocshared=8
#p opt UM062X/6-311+G** nosymm int=superfine 

Title Card Required

0 1
C -1 -0.49676786  0.00000000  0.00000000
C -1  0.49676786  0.00000000  0.00000000
H 0 -1.38022733  0.00000000  0.00000000
H 0  1.38021405  0.00000000  0.00000000

