%chk=opt.chk
%mem=4GB
%nprocshared=8
#p opt UM062X/6-311+G** nosymm int=superfine 

Title Card Required

0 1
C -1 -0.78405530  0.00000000  0.00000000
C -1  0.78405530  0.00000000  0.00000000
H 0 -2.17843110  0.00000000  0.00000000
H 0  2.17841014  0.00000000  0.00000000

