%chk=opt.chk
%mem=4GB
%nprocshared=8
#p opt UM062X/6-311+G** nosymm int=superfine 

Title Card Required

0 1
C -1 -0.89178810  0.00000000  0.00000000
C -1  0.89178810  0.00000000  0.00000000
H 0 -2.47775751  0.00000000  0.00000000
H 0  2.47773366  0.00000000  0.00000000

