%chk=opt.chk
%mem=4GB
%nprocshared=8
#p opt UM062X/6-311+G** nosymm int=superfine

Title Card Required

0 1
N  0.82742901  0.00000000 -0.00000000
H  1.19100326 -0.94930974  0.00000000
H  1.19101024  0.47465360 -0.82212465
H  1.19099553  0.47465285  0.82213036


