%chk=opt.chk
%mem=4GB
%nprocshared=8
#p opt UM062X/6-311+G** nosymm int=superfine

Title Card Required

-1 2
B   -1.090633   -0.000114   0.000036
H   -1.297754   -1.030017   -0.593208
H   -1.298231   1.028538   -0.595209
H   -1.297882   0.001000   1.188560


