%chk=force.chk 
%mem=4GB
%nprocshared=8
#p UM062X/6-311+G** force int=superfine  pop=saveNBO 

Title Card Required

1 2
C -0.60153950  0.00000000  0.00000000
N  0.60153950  0.00000000  0.00000000
H -1.69575950  0.00000000  0.00000000

