Graphene                     
   1.00000000000000     
     2.9608501811608656    0.0000000000000000    0.0000000000000000
     -1.4803901878520598    2.5641851179483024    0.0000000000000000
     0.0000000000000000    0.0000000000000000    15.0000000000000000
   C 
     2
Direct
  0.0000000000000000  0.0000000000000000  0.5
  0.6666688455419298  0.3333346372906099  0.5
