%chk=opt.chk
%mem=4GB
%nprocshared=8
#p opt UM062X/6-311+G** nosymm int=superfine

Title Card Required

0 4
Si  1.10297457  0.00000000  0.00000000
H  2.08930572  1.10448803  0.00000000


