Graphene                     
   1.00000000000000     
     3.1582401932382567    0.0000000000000000    0.0000000000000000
     -1.5790828670421970    2.7351307924781896    0.0000000000000000
     0.0000000000000000    0.0000000000000000    15.0000000000000000
   C 
     2
Direct
  0.0000000000000000  0.0000000000000000  0.5
  0.6666688455419298  0.3333346372906099  0.5
