Graphene                     
   1.00000000000000     
     2.2946588903996710    0.0000000000000000    0.0000000000000000
     -1.1473023955853463    1.9872434664099348    0.0000000000000000
     0.0000000000000000    0.0000000000000000    15.0000000000000000
   C 
     2
Direct
  0.0000000000000000  0.0000000000000000  0.5
  0.6666688455419298  0.3333346372906099  0.5
