%chk=opt.chk
%mem=4GB
%nprocshared=8
#p opt UM062X/6-311+G** nosymm int=superfine

Title Card Required

0 1
C -1 -1.10554223 -0.00000000 -0.00000000
N -1  1.10554223  0.00000000 -0.00000000
H  0  1.46721604 -0.94599854 -0.00000000
H  0 -1.46257944  1.03081716 -0.01933913
H  0  1.46721839  0.45735611  0.82809214
H  0 -1.46257998 -0.48144368 -0.91168500
H  0 -1.56933799 -0.50545285  0.85659330

