%chk=opt.chk
%mem=4GB
%nprocshared=8
#p opt UM062X/6-311+G** nosymm int=superfine

Title Card Required

0 1
Si -1 -1.52870500 -0.00000000  0.00000000
Si -1  1.52870500  0.00000000  0.00000000
H  0 -2.98708000 -0.00002676  0.00000000
H  0  2.98708000  0.00003807  0.00000000

