%chk=opt.chk
%mem=4GB
%nprocshared=8
#p opt UM062X/6-311+G** nosymm int=superfine

Title Card Required

0 2
O  0.70720268  0.00000000  0.00000000
H  1.01739059 -0.90717021 -0.00000000


