%chk=opt.chk
%mem=4GB
%nprocshared=8
#p opt UM062X/6-311+G** nosymm int=superfine

Title Card Required

0 2
Si -1.16981901 -0.00000000  0.00000000
H -1.68170776 -0.69501893  1.20404702
H -1.68181151  1.39019933 -0.00011906
H -1.68190779 -0.69521870 -1.20384206


