%chk=opt.chk
%mem=4GB
%nprocshared=8
#p opt UM062X/6-311+G** nosymm int=superfine 

Title Card Required

0 1
C -1 -0.41760936  0.00000000  0.00000000
C -1  0.41760936 -0.00000000 -0.00000000
H 0 -0.77644035 -0.92138200 -0.00000000
H 0 -0.77440545  0.92570400 -0.00000000
H 0  0.77644035  0.92138200  0.00000000
H 0  0.77440545 -0.92570400  0.00000000

