%chk=opt.chk
%mem=4GB
%nprocshared=8
#p opt UM062X/6-311+G** nosymm int=superfine

Title Card Required

0 1
C -0.917541   -0.078890   -0.036819
P  0.650158    0.298181    0.004487
H -1.484192   -1.004264    0.012522
H  2.008472   -0.141616    0.001008
H -1.409557    0.926727    0.018517

