%chk=opt.chk
%mem=8GB
%nprocshared=8
#p opt UM062X/6-311+G** nosymm int=superfine SCF=NoVarAcc

Title Card Required

0 1
C -1 -3.43262500  0.00000000  0.00000000
C -1  3.43262500  0.00000000  0.00000000
H 0 -4.55548700 -0.00000600  0.00000600
H 0  4.55548600  0.00000400 -0.00000400

