%chk=opt.chk
%mem=4GB
%nprocshared=8
#p opt UM062X/6-311+G** int=superfine 

Title Card Required

1 2
C -0.70689200  0.00000000 -0.00000000
C  0.70689200 -0.00000000  0.00000000
H -1.26271800 -0.93229700  0.00000000
H -1.25943200  0.93665800  0.00000000
H  1.26271800  0.93229700 -0.00000000
H  1.25943200 -0.93665800 -0.00000000

