%chk=opt.chk
%mem=4GB
%nprocshared=8
#p opt UM062X/6-311+G** int=superfine 

Title Card Required

1 2
C -0.000000    0.706955   -0.000000
C  0.000000   -0.706955   -0.000000
H -0.934616    1.260984   -0.000000
H  0.934913    1.260520   -0.000000
H  0.934616   -1.260984   -0.000000
H -0.934913   -1.260520   -0.000000

