%chk=opt.chk
%mem=4GB
%nprocshared=8
#p opt UM062X/6-311+G** nosymm int=superfine

Title Card Required

0 1
S -1 -2.01819129  0.00000000  0.00000000
S -1  2.01819129  0.00000000  0.00000000
H  0 -2.20183327 -1.33225014 -0.00000000
H  0  2.20183327  0.02840588  1.33194727

