%chk=opt.chk
%mem=4GB
%nprocshared=8
#p opt UM062X/6-311+G** nosymm int=superfine

Title Card Required

0 1
S -1  -2.118191   0.000000   0.000000
S -1  2.118191   0.000000   0.000000
H  0  -1.985268   -0.175059   -1.328606
H  0  1.978500   0.939765   0.956840

