%chk=opt.chk
%mem=4GB
%nprocshared=8
#p opt UM062X/6-311+G** nosymm int=superfine

Title Card Required

0 1
S -1  -2.193191   0.000000   0.000000
S -1  2.193191   0.000000   0.000000
H  0  -2.029407   -1.297308   -0.320554
H  0  2.043155   0.400307   1.276627

