%chk=opt.chk
%mem=4GB
%nprocshared=8
#p opt UM062X/6-311+G** nosymm int=superfine

Title Card Required

0 1
S -1  -2.218191   0.000000   0.000000
S -1  2.218191   0.000000   0.000000
H  0  -1.997464   -1.288436   -0.344489
H  0  2.090791   0.344238   1.276814

