%chk=opt.chk
%mem=4GB
%nprocshared=8
#p opt UM062X/6-311+G** nosymm int=superfine

Title Card Required

0 1
S -1  -2.268191   0.000000   0.000000
S -1  2.268191   0.000000   0.000000
H  0  -2.112069   -1.273563   -0.410463
H  0  2.113046   0.464947   1.254571

