%chk=opt.chk
%mem=4GB
%nprocshared=8
#p opt UM062X/6-311+G** nosymm int=superfine

Title Card Required

0 1
S -1  -2.318191   0.000000   0.000000
S -1  2.318191   0.000000   0.000000
H  0  -2.339232   -1.223265   -0.536616
H  0  2.259089   0.597381   1.197125

