%chk=opt.chk
%mem=4GB
%nprocshared=8
#p opt UM062X/6-311+G** nosymm int=superfine

Title Card Required

0 1
S -1  -2.368191   0.000000   0.000000
S -1  2.368191   0.000000   0.000000
H  0  -2.208167   -1.300999   -0.240139
H  0  2.257091   0.285416   1.315358

