%chk=opt.chk
%mem=4GB
%nprocshared=8
#p opt UM062X/6-311+G** nosymm int=superfine

Title Card Required

0 1
S -1  -2.418191   0.000000   0.000000
S -1  2.418191   0.000000   0.000000
H  0  -2.305440   -1.319393   -0.242090
H  0  2.308948   0.256430   1.317167

