%chk=opt.chk
%mem=4GB
%nprocshared=8
#p opt UM062X/6-311+G** nosymm int=superfine

Title Card Required

0 1
S -1  -2.443191   0.000000   0.000000
S -1  2.443191   0.000000   0.000000
H  0  -2.325793   -1.280493   -0.398906
H  0  2.321192   0.411662   1.276540

