%chk=opt.chk
%mem=4GB
%nprocshared=8
#p opt UM062X/6-311+G** nosymm int=superfine

Title Card Required

0 1
Si -0.978705    0.000006    0.000006
Si  0.978705   -0.000010   -0.000010
H  -2.437080   -0.000001   -0.000001
H   2.437080    0.000005    0.000005

