%oldchk=force.chk
%chk=nbo.chk
#p UM062X/6-311+G** Pop=NBO Read

NBO Analysis

0 1
O -1.08600650  0.00000000 -0.00000000
S  1.08600650  0.00000000  0.00000000
H -2.05756055 -0.00085003  0.00000000
H  2.46039445 -0.00101711 -0.00000796

$NBO
ARCHIVE FILE=ethane_nbo.47
$END


