%chk=opt.chk
%mem=4GB
%nprocshared=8
#p opt UM062X/6-311+G** nosymm int=superfine

Title Card Required

0 2
S  1.08600650  0.00000000  0.00000000
H  2.46039445 -0.00101711 -0.00000796


