%chk=opt.chk
%mem=4GB
%nprocshared=8
#p UM062X/6-311+G** force int=superfine 

Title Card Required

0 1
N   0.545048   0.000000   0.000000
N   -0.545048   0.000000   0.000000

