%chk=opt.chk
%mem=4GB
%nprocshared=8
#p UM062X/6-311+G** force int=superfine 

Title Card Required

0 1
N -1  0.87004800  0.00000000  0.00000000
N -1 -0.87004800  0.00000000  0.00000000

