%chk=opt.chk
%mem=4GB
%nprocshared=8
#p opt UM062X/6-311+G** nosymm int=superfine

Title Card Required

0 3
C -0.80213956  0.00000000  0.00000000
H -1.37778175 -0.92503703  0.00000000
H -1.37889620  0.92433870 -0.00015231


