%chk=opt.chk
%mem=32GB
%nprocshared=16
#p opt UM062X/6-311+G** nosymm int=superfine

Title Card Required

0 1
C -1  -1.806637   0.000000   0.000000
N -1  1.806637   -0.000000   -0.000000
H  0  -2.600136   -0.774973   0.002729
H  0  0.770585   -0.107627   -0.001636
H  0  -2.380259   0.942844   0.116467

