%chk=opt.chk
%mem=32GB
%nprocshared=16
#p opt UM062X/6-311+G** nosymm int=superfine

Title Card Required

0 1
C -1  -1.856637   0.000000   0.000000
N -1  1.856637   0.000000   0.000000
H  0  -2.571704   -0.848901   -0.008281
H  0  0.804474   -0.036893   0.004978
H  0  -2.531552   0.882544   0.018079

