%oldchk=../00250/opt.chk
%chk=opt.chk
%mem=4GB
%nprocshared=8
#p opt UM062X/6-311+G** nosymm int=superfine SCF=(MaxCycle=200,NoVarAcc,noincfock) guess=read

Title Card Required

0 1
C -1  -1.906637   0.000000   0.000000
N -1  1.906637   0.000000   0.000000
H  0  -2.885860   -0.515364   0.018987
H  0  0.890540   -0.222410   -0.006945
H  0  -2.195384   1.067708   -0.057312

