%chk=opt.chk
%mem=32GB
%nprocshared=16
#p opt UM062X/6-311+G** nosymm int=superfine

Title Card Required

0 1
C -1  -1.981486   -0.000000   0.000000
N -1  1.981486   -0.000000   0.000000
H  0  -2.673627   -0.847902   -0.165799
H  0  0.940132   0.001246   -0.000219
H  0  -2.672366   0.848948   0.165693

