Graphene                     
   1.00000000000000     
     4.8360552958960801    0.0000000000000000    0.0000000000000000
     -2.4179706401583640    4.1881690259822273    0.0000000000000000
     0.0000000000000000    0.0000000000000000    15.0000000000000000
   C 
     2
Direct
  0.0000000000000000  0.0000000000000000  0.5
  0.6666688455419298  0.3333346372906099  0.5
