%chk=opt.chk
%mem=4GB
%nprocshared=8
#p opt UM062X/6-311+G** nosymm int=superfine

Title Card Required

0 4
C -0.57239450  0.00000000  0.00000000
H -1.64003750  0.00000000  0.00000000


