Graphene                     
   1.00000000000000     
     3.0348714356898872    0.0000000000000000    0.0000000000000000
     -1.5173999425483613    2.6282897458970100    0.0000000000000000
     0.0000000000000000    0.0000000000000000    15.0000000000000000
   C 
     2
Direct
  0.0000000000000000  0.0000000000000000  0.5
  0.6666688455419298  0.3333346372906099  0.5
