Graphene                     
   1.00000000000000     
     4.3179065141929289    0.0000000000000000    0.0000000000000000
     -2.1589023572842536    3.7394366303412747    0.0000000000000000
     0.0000000000000000    0.0000000000000000    15.0000000000000000
   C 
     2
Direct
  0.0000000000000000  0.0000000000000000  0.5
  0.6666688455419298  0.3333346372906099  0.5
