Graphene                     
   1.00000000000000     
     4.9347503019347760    0.0000000000000000    0.0000000000000000
     -2.4673169797534329    4.2736418632471711    0.0000000000000000
     0.0000000000000000    0.0000000000000000    15.0000000000000000
   C 
     2
Direct
  0.0000000000000000  0.0000000000000000  0.5
  0.6666688455419298  0.3333346372906099  0.5
