Graphene                     
   1.00000000000000     
     2.7881339205931486    0.0000000000000000    0.0000000000000000
     -1.3940340935606896    2.4146076527346518    0.0000000000000000
     0.0000000000000000    0.0000000000000000    15.0000000000000000
   C 
     2
Direct
  0.0000000000000000  0.0000000000000000  0.5
  0.6666688455419298  0.3333346372906099  0.5
