K-Spacing Value to Generate K-Mesh: 0.030
0
Gamma
  18  18   7
0.0  0.0  0.0
