%chk=force.chk 
%mem=4GB
%nprocshared=8
#p UM062X/6-311+G** force int=superfine  pop=saveNBO 

Title Card Required

0 1
S -1.82520000  0.00000000  0.00000000
S  1.82520000  0.00000000  0.00000000

