%chk=force.chk 
%mem=4GB
%nprocshared=8
#p UM062X/6-311+G** force int=superfine  pop=saveNBO 

Title Card Required

1 2
C -0.79442700  0.00000000  0.00000000
P  0.79442700  0.00000000  0.00000000
H -1.87918400  0.00000000  0.00000000

