%oldchk=../00025/opt.chk
%chk=opt.chk
%mem=4GB
%nprocshared=8
#p opt UM062X/6-311+G** nosymm int=superfine SCF=(MaxCycle=200,NoVarAcc,noincfock) guess=read

Title Card Required

1 2
C -1 -0.94442700  0.00000000  0.00000000
P -1  0.94442700  0.00000000  0.00000000
H  0 -2.02918400  0.00000000  0.00000000

