%chk=opt.chk
%mem=4GB
%nprocshared=8
#p opt UM062X/6-311+G** nosymm int=superfine

Title Card Required

1 2
C -1 -1.34442700  0.00000000  0.00000000
P -1  1.34442700  0.00000000  0.00000000
H  0 -2.42918400  0.00000000  0.00000000

