%oldchk=../00290/opt.chk
%chk=opt.chk
%mem=4GB
%nprocshared=8
#p opt UM062X/6-311+G** nosymm int=superfine SCF=(MaxCycle=200,NoVarAcc,noincfock) guess=read

Title Card Required

1 2
C -1 -2.26942700  0.00000000  0.00000000
P -1  2.26942700  0.00000000  0.00000000
H  0 -3.35418400  0.00000000  0.00000000

