%chk=opt.chk
%mem=4GB
%nprocshared=8
#p opt UM062X/6-311+G** nosymm int=superfine

Title Card Required

0 2
C -0.73054223 -0.00000000 -0.00000000
H -1.08757944  1.03081716 -0.01933913
H -1.08757998 -0.48144368 -0.91168500
H -1.19433799 -0.50545285  0.85659330


