Graphene                     
   1.00000000000000     
     5.1321403140121671    0.0000000000000000    0.0000000000000000
     -2.5660096589435701    4.4445875377770578    0.0000000000000000
     0.0000000000000000    0.0000000000000000    15.0000000000000000
   C 
     2
Direct
  0.0000000000000000  0.0000000000000000  0.5
  0.6666688455419298  0.3333346372906099  0.5
