%chk=opt.chk
%mem=4GB
%nprocshared=8
#p opt UM062X/6-311+G** nosymm int=superfine

Title Card Required

0 1
O	0.0000	0.7375	-0.0528
O	0.0000	-0.7375	-0.0528
H	0.8190	0.8170	0.4220
H	-0.8190	-0.8170	0.4220

