%chk=opt.chk
%mem=8GB
%nprocshared=24
#p opt UM062X/6-311+G** nosymm int=superfine 

Title Card Required

0 1
C -1 -0.41995085 -0.00000000  0.00000000
C -1  0.41999375  0.00000000 -0.00000000
H 0  0.63740545 -0.88075400  0.50964900
H 0 -0.63725200 -0.88202100 -0.50795000
H 0  0.63729380  0.88200900  0.50791600
H 0  0.63729875 -0.00087300 -1.01781900
H 0 -0.63736310  0.88074200 -0.50968100
H 0 -0.63725585  0.00086000  1.01778700

