Graphene                     
   1.00000000000000     
     2.5167226539867360    0.0000000000000000    0.0000000000000000
     -1.2583316596742509    2.1795573502560575    0.0000000000000000
     0.0000000000000000    0.0000000000000000    15.0000000000000000
   C 
     2
Direct
  0.0000000000000000  0.0000000000000000  0.5
  0.6666688455419298  0.3333346372906099  0.5
