%chk=opt.chk
%mem=4GB
%nprocshared=8
#p opt UM062X/6-311+G** nosymm int=superfine

Title Card Required

0 2
N  0.69539900 -0.00000000  0.00000000
H  1.24676246  0.84339581 -0.00011191
H  1.24676055 -0.84339625  0.00010849


