%chk=opt.chk
%mem=4GB
%nprocshared=8
#p opt UM062X/6-311+G** nosymm int=superfine

Title Card Required

0 1
B -1 -0.64206583  0.00000000  0.00000000
N -1  0.64206583  0.00000000  0.00000000
H  0 -1.80795693 -0.00072450  0.00000000
H  0  1.63621896  0.00008608  0.00000000

