%chk=opt.chk
%mem=4GB
%nprocshared=8
#p opt UM062X/6-311+G** nosymm int=superfine

Title Card Required

0 1
B -1  -0.917066   0.000000   0.000000
N -1  0.917066   0.000000   0.000000
H  0  -1.810484   0.784654   -0.018449
H  0  0.999707   1.028334   0.013363

