%chk=opt.chk
%mem=4GB
%nprocshared=8
#p opt UM062X/6-311+G** nosymm int=superfine

Title Card Required

0 1
B -1  -0.992110   -0.000109   0.000000
N -1  0.992036   0.000065   0.000000
H  0  -2.140213   -0.236668   -0.021439
H  0  1.071193   0.856137   0.575218

