%chk=opt.chk
%mem=4GB
%nprocshared=8
#p opt UM062X/6-311+G** nosymm int=superfine

Title Card Required

0 1
B -1  -1.017220   -0.000379   0.000000
N -1  1.016962   0.000220   -0.000000
H  0  -2.151562   0.304380   -0.155595
H  0  1.006005   1.040104   -0.002192

