%chk=opt.chk
%mem=4GB
%nprocshared=8
#p opt UM062X/6-311+G** nosymm int=superfine

Title Card Required

0 1
B -1  -1.042153   -0.000223   0.000000
N -1  1.042007   0.000134   0.000000
H  0  -2.221397   0.126565   0.003061
H  0  0.896404   1.032001   -0.011453

