%chk=opt.chk
%mem=4GB
%nprocshared=8
#p opt UM062X/6-311+G** nosymm int=superfine

Title Card Required

0 1
B -1  -1.068556   -0.003715   0.000000
N -1  1.066107   0.002292   0.000000
H  0  -2.247850   0.158557   0.000057
H  0  0.896112   1.032133   -0.000193

