%chk=opt.chk
%mem=4GB
%nprocshared=8
#p opt UM062X/6-311+G** nosymm int=superfine

Title Card Required

0 1
B -1  -1.143093   -0.002580   -0.000000
N -1  1.141232   0.001596   0.000000
H  0  -1.957976   0.886884   0.000000
H  0  0.976420   1.039901   0.000000

