%chk=opt.chk
%mem=4GB
%nprocshared=8
#p opt UM062X/6-311+G** nosymm int=superfine

Title Card Required

0 1
B -1  -1.192066   0.000000   0.000000
N -1  1.192066   0.000000   0.000000
H  0  -2.364357   -0.130178   0.000000
H  0  2.191288   -0.221278   0.000000

