%chk=opt.chk
%mem=4GB
%nprocshared=8
#p opt UM062X/6-311+G** nosymm int=superfine

Title Card Required

0 1
B -1  -1.217066   0.000000   0.000000
N -1  1.217066   0.000000   0.000000
H  0  -2.410169   0.143929   0.000000
H  0  2.260523   0.238750   -0.000000

