%chk=opt.chk
%mem=4GB
%nprocshared=8
#p opt UM062X/6-311+G** nosymm int=superfine

Title Card Required

0 1
B -1  -1.242066   0.000000   0.000000
N -1  1.242066   0.000000   0.000000
H  0  -2.392292   -0.400277   -0.124700
H  0  1.233754   0.985521   0.315199

