%chk=opt.chk
%mem=4GB
%nprocshared=8
#p opt UM062X/6-311+G** nosymm int=superfine

Title Card Required

0 1
B -1  -1.292066   -0.000051   0.000045
N -1  1.292066   0.000040   -0.000033
H  0  -2.456767   -0.243870   -0.218920
H  0  1.259533   0.772832   0.689106

