%chk=opt.chk
%mem=4GB
%nprocshared=8
#p opt UM062X/6-311+G** nosymm int=superfine

Title Card Required

0 1
B -1 -1.26706583  0.00000000  0.00000000
N -1  1.26706583  0.00000000  0.00000000
H  0 -2.43295693 -0.00072450  0.00000000
H  0  2.26121896  0.00008608  0.00000000

