%chk=opt.chk
%mem=4GB
%nprocshared=8
#p opt UM062X/6-311+G** nosymm int=superfine

Title Card Required

0 1
B -1  -1.317066   -0.000328   -0.000129
N -1  1.317060   0.000358   0.000207
H  0  -2.478566   -0.304401   0.153950
H  0  1.262199   0.923641   -0.464734

