%chk=opt.chk
%mem=4GB
%nprocshared=8
#p opt UM062X/6-311+G** nosymm int=superfine

Title Card Required

0 1
B -1  -1.392125   -0.000093   0.000000
N -1  1.392042   0.000051   -0.000000
H  0  -2.556232   -0.311177   0.146828
H  0  1.309034   0.933156   -0.443120

