%chk=opt.chk
%mem=4GB
%nprocshared=8
#p opt UM062X/6-311+G** nosymm int=superfine

Title Card Required

0 1
B -1  -1.492066   0.000000   0.000000
N -1  1.492066   0.000000   0.000000
H  0  -2.536918   0.479024   -0.000000
H  0  2.015010   0.835254   -0.000000

