%chk=opt.chk
%mem=4GB
%nprocshared=8
#p opt UM062X/6-311+G** nosymm int=superfine

Title Card Required

0 1
B -1  -1.517628   -0.001182   0.000000
N -1  1.516807   0.000550   0.000000
H  0  -2.394479   0.782574   0.000000
H  0  1.516807   1.004684   -0.000000

