%chk=opt.chk
%mem=4GB
%nprocshared=8
#p opt UM062X/6-311+G** nosymm int=superfine

Title Card Required

0 1
B -1  -1.668152   -0.003464   -0.000000
N -1  1.666391   0.001560   0.000000
H  0  -2.891017   -0.005306   -0.000000
H  0  1.266414   0.940252   -0.000006

