%chk=opt.chk
%mem=4GB
%nprocshared=8
#p opt UM062X/6-311+G** nosymm int=superfine

Title Card Required

0 1
B -1  -1.742997   -0.003517   -0.000000
N -1  1.741426   0.001527   0.000000
H  0  -2.833591   0.558076   -0.000024
H  0  1.741426   1.066416   0.000000

