%chk=opt.chk
%mem=4GB
%nprocshared=8
#p opt UM062X/6-311+G** nosymm int=superfine

Title Card Required

0 1
B -1  -1.792124   -0.000180   -0.000008
N -1  1.792009   0.000079   0.000035
H  0  -2.841409   -0.549733   -0.265633
H  0  1.677284   0.836809   0.628466

