%chk=opt.chk
%mem=4GB
%nprocshared=8
#p opt UM062X/6-311+G** nosymm int=superfine

Title Card Required

0 1
B -1  -1.817227   -0.000672   0.000000
N -1  1.816965   0.000249   0.000000
H  0  -2.974947   0.451623   -0.000019
H  0  1.816965   1.022520   0.000000

