%chk=force.chk 
%mem=4GB
%nprocshared=8
#p UM062X/6-311+G** force int=superfine  pop=saveNBO 

Title Card Required

0 1
B -0.82742901 -0.00000000  0.00000000
N  0.82742901  0.00000000 -0.00000000
H  1.19100326 -0.94930974  0.00000000
H -1.13601625 -0.58327670  1.01025442
H  1.19101024  0.47465360 -0.82212465
H  1.19099553  0.47465285  0.82213036
H -1.13601637  1.16654475  0.00002019
H -1.13603540 -0.58325811 -1.01025675

