%chk=opt.chk
%mem=4GB
%nprocshared=8
#p opt UM062X/6-311+G** nosymm int=superfine

Title Card Required

0 1
C -0.63163709  0.00000000  0.00000000
H -1.25329661 -0.90066143 -0.00000000
H -1.15816940  0.95471893 -0.00010966


