%chk=force.chk 
%mem=4GB
%nprocshared=8
#p UM062X/6-311+G** force int=superfine  pop=saveNBO 

Title Card Required

0 1
P -2.36349500  0.00000000  0.00000000
P  2.36349500  0.00000000  0.00000000

