%chk=opt.chk
%mem=4GB
%nprocshared=8
#p UM062X/6-311+G** force int=superfine 

Title Card Required

1 2
C   -0.544307   0.000000   0.000000
C   0.544307   0.000000   0.000000
H   -1.302896   -0.841500   -0.000000
H   -1.291691   0.854402   0.000000
H   1.302896   0.841500   -0.000000
H   1.291691   -0.854402   0.000000

