%chk=opt.chk
%mem=16GB
%nprocshared=24
#p opt UM062X/6-311+G** nosymm int=superfine SCF=NoVarAcc SCF=tight

Title Card Required

1 2
C -1 -9.78267500  0.00000000  0.00000000
C -1  9.78267500  0.00000000  0.00000000
H 0  9.80318600 -0.93726900  0.54248000
H 0 -9.80110400 -0.93836000 -0.54065600
H 0  9.80228400  0.93845600  0.54045200
H 0  9.80112900 -0.00117400 -1.08297000
H 0 -9.80325000  0.93738000 -0.54228600
H 0 -9.80224700  0.00095500  1.08295300

