%chk=opt.chk
%mem=4GB
%nprocshared=8
#p opt UM062X/6-311+G** nosymm int=superfine

Title Card Required

0 3
N  0.61706583  0.00000000  0.00000000
H  1.61121896  0.00008608  0.00000000


