%chk=opt.chk
%mem=4GB
%nprocshared=8
#p opt UM062X/6-311+G** nosymm int=superfine

Title Card Required

0 1
O -1  -1.111013   -0.000169   -0.000252
S -1  1.111007   0.000099   0.000219
H  0  -1.134956   -0.136698   0.956719
H  0  1.014307   -1.113261   -0.730069

