%chk=opt.chk
%mem=4GB
%nprocshared=8
#p opt UM062X/6-311+G** nosymm int=superfine

Title Card Required

0 1
O -1  -1.161006   -0.000002   0.000013
S -1  1.161006   0.000002   -0.000013
H  0  -1.168585   0.974646   -0.021991
H  0  1.156568   -0.178657   -1.335430

