%chk=opt.chk
%mem=4GB
%nprocshared=8
#p opt UM062X/6-311+G** nosymm int=superfine

Title Card Required

0 1
O -1  -1.136006   -0.000014   0.000005
S -1  1.136007   0.000014   -0.000004
H  0  -1.214784   -0.143499   0.955567
H  0  1.103443   -1.264776   -0.449063

