%chk=opt.chk
%mem=4GB
%nprocshared=8
#p opt UM062X/6-311+G** nosymm int=superfine

Title Card Required

0 1
O -1  -1.211007   0.000000   0.000000
S -1  1.211007   0.000000   0.000000
H  0  -1.280868   -0.023908   -0.965098
H  0  1.201689   -0.818873   -1.068739

