%chk=opt.chk
%mem=4GB
%nprocshared=8
#p opt UM062X/6-311+G** nosymm int=superfine

Title Card Required

0 1
O -1  -1.236009   -0.000176   0.000584
S -1  1.235964   0.000395   -0.000652
H  0  -1.252871   -0.015973   -0.960566
H  0  1.316082   -0.380525   -1.280780

