%chk=opt.chk
%mem=4GB
%nprocshared=8
#p opt UM062X/6-311+G** nosymm int=superfine

Title Card Required

0 1
O -1  -1.310453   -0.023167   -0.025316
S -1  1.311216   0.014920   0.018661
H  0  -1.118292   -0.958284   -0.186653
H  0  1.265544   -1.320124   -0.179598

