%chk=opt.chk
%mem=4GB
%nprocshared=8
#p opt UM062X/6-311+G** nosymm int=superfine

Title Card Required

0 1
O -1  -1.286007   0.000001   -0.000004
S -1  1.286007   -0.000001   0.000004
H  0  -1.285621   -0.031712   1.068722
H  0  1.282758   -0.210400   -1.328833

