%chk=opt.chk
%mem=4GB
%nprocshared=8
#p opt UM062X/6-311+G** nosymm int=superfine

Title Card Required

0 1
O -1  -1.336006   -0.000488   0.000015
S -1  1.336014   0.000486   0.000075
H  0  -1.281994   -0.446302   0.885654
H  0  1.260360   -1.184603   -0.619912

