%chk=opt.chk
%mem=4GB
%nprocshared=8
#p opt UM062X/6-311+G** nosymm int=superfine

Title Card Required

0 1
O -1  -1.361006   -0.000006   0.000018
S -1  1.361006   0.000007   -0.000018
H  0  -1.314014   0.999271   -0.696741
H  0  1.368619   -0.341489   -1.296281

