%chk=opt.chk
%mem=4GB
%nprocshared=8
#p opt UM062X/6-311+G** nosymm int=superfine

Title Card Required

0 1
O -1  -1.461006   -0.000125   0.000039
S -1  1.461006   0.000139   -0.000069
H  0  -1.462915   -0.928771   -0.281471
H  0  2.535808   -0.709879   -0.663248

