%chk=opt.chk
%mem=4GB
%nprocshared=8
#p opt UM062X/6-311+G** nosymm int=superfine

Title Card Required

0 1
O -1  -1.486154   -0.000742   0.000924
S -1  1.485990   0.000168   -0.000798
H  0  -1.616463   -0.449988   -0.849897
H  0  1.417572   0.283892   -1.319702

