%chk=opt.chk
%mem=4GB
%nprocshared=8
#p opt UM062X/6-311+G** nosymm int=superfine

Title Card Required

0 1
O -1 -1.61100650  0.00000000 -0.00000000
S -1  1.61100650  0.00000000  0.00000000
H  0 -2.58256055 -0.00085003  0.00000000
H  0  2.98539445 -0.00101711 -0.00000796

