%chk=opt.chk
%mem=4GB
%nprocshared=8
#p opt UM062X/6-311+G** nosymm int=superfine

Title Card Required

0 1
O -1  -1.586007   0.000037   -0.000020
S -1  1.586006   -0.000038   0.000023
H  0  -1.587216   -0.973823   -0.000045
H  0  1.589694   -1.150311   -0.710195

