%oldchk=../00105/opt.chk
%chk=opt.chk
%mem=4GB
%nprocshared=8
#p opt UM062X/6-311+G** nosymm int=superfine SCF=(MaxCycle=200,NoVarAcc,noincfock) guess=read

Title Card Required

0 1
O -1  -1.636006   -0.000008   0.000006
S -1  1.636007   0.000006   -0.000003
H  0  -1.677749   -0.229067   1.049219
H  0  1.556041   -1.106461   -0.782982

