%chk=opt.chk
%mem=4GB
%nprocshared=8
#p opt UM062X/6-311+G** nosymm int=superfine

Title Card Required

0 1
O -1  -1.810993   -0.000124   0.000085
S -1  1.811007   0.000192   -0.000181
H  0  -1.771868   0.665963   0.729204
H  0  1.557866   -0.497661   -1.226996

