%chk=opt.chk
%mem=4GB
%nprocshared=8
#p opt UM062X/6-311+G** nosymm int=superfine

Title Card Required

0 1
O -1  -1.911006   -0.000050   0.000032
S -1  1.911008   0.000063   -0.000052
H  0  -1.885083   -0.602823   0.748917
H  0  1.634286   0.436933   -1.243816

