%chk=opt.chk
%mem=4GB
%nprocshared=8
#p opt UM062X/6-311+G** nosymm int=superfine

Title Card Required

0 1
O -1 -2.53600650  0.00000000 -0.00000000
S -1  2.53600650  0.00000000  0.00000000
H  0 -3.50756055 -0.00085003  0.00000000
H  0  3.91039445 -0.00101711 -0.00000796

