%chk=opt.chk
%mem=4GB
%nprocshared=8
#p opt UM062X/6-311+G** nosymm int=superfine

Title Card Required

1 2
N  0.65273421  0.00000000  0.00000000
H  1.67125015  0.00000234  0.00000000


