%chk=opt.chk
%mem=4GB
%nprocshared=8
#p opt UM062X/6-311+G** nosymm int=superfine 

Title Card Required

0 1
C -1 -0.982625    0.000000    0.000000
C -1  0.982625    0.000000    0.000000
H 0  -1.095671    0.321352    1.063773
H 0   1.096320    1.033920   -0.406981

