%chk=opt.chk
%mem=4GB
%nprocshared=8
#p opt UM062X/6-311+G** nosymm int=superfine 

Title Card Required

0 1
C -1 -2.05762500  0.00000000  0.00000000
C -1  2.05762500  0.00000000  0.00000000
H 0 -2.17067100  0.32135200  1.06377300
H 0  2.17132000  1.03392000 -0.40698100

