%chk=opt.chk
%mem=4GB
%nprocshared=8
#p opt UM062X/6-311+G** nosymm int=superfine

Title Card Required

0 3
Si  1.06251800 -0.00000000  0.00000000
H  1.84341211  1.24876850 -0.00078300
H  1.84342291 -1.24877557  0.00092500


