%chk=opt.chk
%mem=24GB
%nprocshared=28
#p opt UM062X/6-311+G** nosymm int=superfine 

Title Card Required

1 2
C -1  -1.72622809  0.00000000  0.00000000
C -1   1.72622809  0.00000000 -0.00000000
C 0  -0.00000947 -2.05545100 -0.00218400
C 0  -0.00001894 -3.45663400 -0.00371000
C 0  -1.19200783 -4.28964700  0.19341900
C 0  -1.39130114 -1.46623300  0.16419700
C 0   0.69925058 -5.68273300 -0.12500700
H 0   1.36479267 -6.55103000 -0.24207000
C 0  -1.74770190  0.76445700  1.22074200
C 0  -0.69932318 -5.68298300  0.11278600
H 0  -1.36485264 -6.55152100  0.22810600
C 0   1.19195522 -4.28923100 -0.20263200
C 0   1.39128010 -1.46588400 -0.16727800
C 0   1.87884591  2.19168900 -1.33769900
C 0  -1.84485438  0.40953900 -1.37420600
C 0  -1.93757616  2.76908500  2.62285300
H 0  -2.05530179  3.84514500  2.68868800
C 0  -2.47026445 -3.70308600  0.41334100
H 0  -3.41934531 -4.27951100  0.58257000
C 0  -1.83669477  1.75683100 -1.86867700
C 0   2.53693230 -2.28649400 -0.38846300
H 0   3.55720324 -1.81328700 -0.50709000
C 0   1.84488805  0.40665600  1.37505900
C 0   1.83673370  1.75290300  1.87236300
C 0   2.47024972 -3.70220600 -0.42113800
H 0   3.41934005 -4.27827200 -0.59153800
C 0  -1.87907529  2.18886500  1.34229400
C 0  -1.59529241  0.04225000  2.44254900
H 0  -1.44629827 -1.02702500  2.40771200
C 0   1.91938617 -0.62790300  2.36195200
H 0   1.95626908 -1.65906400  2.04521500
C 0  -1.84268690  2.02407800  3.78017400
H 0  -1.90144345  2.50708000  4.74815100
C 0  -2.53693861 -2.28730400  0.38372300
H 0  -3.55719798 -1.81434400  0.50342700
C 0  -1.85962375  1.98025300 -3.26008800
H 0  -1.83426425  3.00602900 -3.60919500
C 0   1.74766192  0.76701800 -1.21914100
C 0  -1.88112282  3.13594400  0.25924100
H 0  -1.91002814  4.17143300  0.58431100
C 0  -1.93167557  0.95518900 -4.17545700
H 0  -1.96639730  1.17003200 -5.23669600
C 0  -1.82885082  2.95542500 -1.07578900
H 0  -1.81116798  3.86784300 -1.66423700
C 0   1.85987417  1.97339900  3.26423800
H 0   1.83454939  2.99843800  3.61550800
C 0  -1.64834933  0.64359400  3.67979400
H 0  -1.53695568  0.03773200  4.57151700
C 0  -1.91927570 -0.62294000 -2.36327900
H 0  -1.95622278 -1.65476100 -2.04870200
C 0   1.93207118  0.94641300  4.17744200
H 0   1.96697284  1.15903100  5.23912300
C 0   1.93734889  2.77460400 -2.61703400
H 0   2.05492301  3.85081600 -2.68059700
C 0   1.97983462 -0.37237300  3.71002300
H 0   2.05980299 -1.19837700  4.40661800
C 0   1.84265744  2.03201600 -3.77592100
H 0   1.90143819  2.51705500 -4.74287700
C 0   1.88065355  3.13649300 -0.25265600
H 0   1.90925163  4.17267000 -0.57555100
C 0  -1.97955369 -0.36457400 -3.71081600
H 0  -2.05949155 -1.18910900 -4.40915300
C 0   1.82855095  2.95316000  1.08199600
H 0   1.81071344  3.86433700  1.67236000
C 0   1.59536922  0.04736400 -2.44246500
H 0   1.44646557 -1.02199400 -2.40988200
C 0   1.64845560  0.65130400 -3.67844300
H 0   1.53718190  0.04729700 -4.57143800

