AB-stacked Graphene                     
   1.00000000000000     
     2.4665805555414728   -0.0002435830104094   -0.0000000493979972
    -1.2330014357926884    2.1361866153282323   -0.0000000058128908
   -0.0000000440809538   -0.0000001058505109   8.400
   C 
     4
Direct
  0.1177941887771071 -0.0017455882391806 -0.0000003414872315
  0.7844532707145326  0.3315805591136607  0.0000002232808776
  0.4650388181722823  0.6684194018347819  0.4999997958231123
  0.1316978751195003  0.0017456272907380  0.5000003223832408
 
  0.00000000E+00  0.00000000E+00  0.00000000E+00
  0.00000000E+00  0.00000000E+00  0.00000000E+00
  0.00000000E+00  0.00000000E+00  0.00000000E+00
  0.00000000E+00  0.00000000E+00  0.00000000E+00
