Graphene                     
   1.00000000000000     
     3.7750839809801038    0.0000000000000000    0.0000000000000000
     -1.8874974895113763    3.2693360253840860    0.0000000000000000
     0.0000000000000000    0.0000000000000000    15.0000000000000000
   C 
     2
Direct
  0.0000000000000000  0.0000000000000000  0.5
  0.6666688455419298  0.3333346372906099  0.5
