%oldchk=force.chk
%chk=nbo.chk
#p UM062X/6-311+G** Pop=NBO Read

NBO Analysis

0 1
O -0.83939168  0.00000000 -0.00000000
S  0.83939168 -0.00000000  0.00000000
H -1.14108385 -0.91346790  0.00000000
H  1.01575962  0.08293886  1.33262176

$NBO
ARCHIVE FILE=ethane_nbo.47
$END


