Graphene                     
   1.00000000000000     
     2.1959638843609754    0.0000000000000000    0.0000000000000000
     -1.0979560559902777    1.9017706291449912    0.0000000000000000
     0.0000000000000000    0.0000000000000000    15.0000000000000000
   C 
     2
Direct
  0.0000000000000000  0.0000000000000000  0.5
  0.6666688455419298  0.3333346372906099  0.5
