AA-stacked Graphene                     
   1.00000000000000     
     2.4663032552826807   -0.0002866375918613    0.0000000000000000
    -1.2328986900275452    2.1360225971548634    0.0000000000000000
   0.0000000000000000   0.0000000000000000   7.400
   C 
     4
Direct
 -0.0001740948805232 -0.0000778187721334  0.0000000000000000
  0.6664916901933066  0.3332547310199058  0.0000000000000000
 -0.0001740948805232 -0.0000778187721334  0.5000000000000000
  0.6664916901933066  0.3332547310199058  0.5000000000000000
 
  0.00000000E+00  0.00000000E+00  0.00000000E+00
  0.00000000E+00  0.00000000E+00  0.00000000E+00
  0.00000000E+00  0.00000000E+00  0.00000000E+00
  0.00000000E+00  0.00000000E+00  0.00000000E+00
