%chk=opt.chk
%mem=4GB
%nprocshared=8
#p opt UM062X/6-311+G** nosymm int=superfine

Title Card Required

0 3
B -1 -2.12841047  0.00000000  0.00000000
B -1  2.12841047  0.00000000  0.00000000
H  0 -3.30095276 -0.00008027  0.00000000
H  0  3.30095276  0.00008027  0.00000000

