Graphene                     
   1.00000000000000     
     3.1088926902189091    0.0000000000000000    0.0000000000000000
     -1.5544096972446628    2.6923943738457177    0.0000000000000000
     0.0000000000000000    0.0000000000000000    15.0000000000000000
   C 
     2
Direct
  0.0000000000000000  0.0000000000000000  0.5
  0.6666688455419298  0.3333346372906099  0.5
