Graphene                     
   1.00000000000000     
     4.3425802657026029    0.0000000000000000    0.0000000000000000
     -2.1712389421830212    3.7608048396575104    0.0000000000000000
     0.0000000000000000    0.0000000000000000    15.0000000000000000
   C 
     2
Direct
  0.0000000000000000  0.0000000000000000  0.5
  0.6666688455419298  0.3333346372906099  0.5
