%chk=opt.chk
%mem=4GB
%nprocshared=8
#p opt UM062X/6-311+G** nosymm int=superfine

Title Card Required

0 2
Si  1.37629201 -0.00000000  0.00000000
H  1.57437173 -1.45402430  0.00000000
H  1.57430601  0.72706046 -1.25920909
H  1.57343328  0.72707028  1.25935341


