%chk=opt.chk
%mem=4GB
%nprocshared=8
#p opt UM062X/6-311+G** nosymm int=superfine 

Title Card Required

0 1
C -1 -0.33143600  0.00000000  0.00000000
C -1  0.33143600 -0.00000000 -0.00000000
H 0 -0.61622250 -0.92138200 -0.00000000
H 0 -0.61460750  0.92570400 -0.00000000
H 0  0.61622250  0.92138200  0.00000000
H 0  0.61460750 -0.92570400  0.00000000

