Graphene                     
   1.00000000000000     
     3.4543252113543432    0.0000000000000000    0.0000000000000000
     -1.7271218858274029    2.9915493042730197    0.0000000000000000
     0.0000000000000000    0.0000000000000000    15.0000000000000000
   C 
     2
Direct
  0.0000000000000000  0.0000000000000000  0.5
  0.6666688455419298  0.3333346372906099  0.5
