Graphene                     
   1.00000000000000     
     2.6894389145544531    0.0000000000000000    0.0000000000000000
     -1.3446877539656210    2.3291348154697085    0.0000000000000000
     0.0000000000000000    0.0000000000000000    15.0000000000000000
   C 
     2
Direct
  0.0000000000000000  0.0000000000000000  0.5
  0.6666688455419298  0.3333346372906099  0.5
