%chk=opt.chk
%mem=4GB
%nprocshared=8
#p opt UM062X/6-311+G** nosymm int=superfine

Title Card Required

1 1
Si -1.37629201  0.00000000  0.00000000
H -1.57369400 -0.72694161  1.25938062
H -1.57440373  1.45401953 -0.00003421
H -1.57401630 -0.72720125 -1.25918055


