%chk=opt.chk
%mem=4GB
%nprocshared=8
#p opt UM062X/6-311+G** nosymm int=superfine

Title Card Required

0 2
S  1.04319129  0.00000000  0.00000000
H  1.22683327  0.02840588  1.33194727


