%chk=opt.chk
%mem=4GB
%nprocshared=8
#p UM062X/6-311+G** force int=superfine 

Title Card Required

1 2
C   -1.131027   0.000000   0.000000
C   1.131027   0.000000   0.000000
H   -1.564411   -0.994876   -0.000000
H   -1.564300   0.994812   -0.000000
H   1.564411   0.994876   0.000000
H   1.564300   -0.994812   0.000000

