%chk=opt.chk
%mem=4GB
%nprocshared=8
#p opt UM062X/6-311+G** nosymm int=superfine 

Title Card Required

0 1
C -1 -1.20762500  0.00000000  0.00000000
C -1  1.20762500  0.00000000  0.00000000
H 0 -1.32067100  0.32135200  1.06377300
H 0  1.32132000  1.03392000 -0.40698100

