%chk=opt.chk
%mem=4GB
%nprocshared=8
#p opt UM062X/6-311+G** nosymm int=superfine

Title Card Required

0 2
B -0.69539900  0.00000000 -0.00000000
H -1.27041962 -1.04183080 -0.00000000
H -1.27041938  1.04182927 -0.00024861


