Graphene                     
   1.00000000000000     
     3.3556302053156473    0.0000000000000000    0.0000000000000000
     -1.6777755462323343    2.9060764670080759    0.0000000000000000
     0.0000000000000000    0.0000000000000000    15.0000000000000000
   C 
     2
Direct
  0.0000000000000000  0.0000000000000000  0.5
  0.6666688455419298  0.3333346372906099  0.5
