%chk=force.chk 
%mem=4GB
%nprocshared=8
#p UM062X/6-311+G** force int=superfine  pop=saveNBO 

Title Card Required

0 1
B -0.61706583  0.00000000  0.00000000
N  0.61706583  0.00000000  0.00000000
H -1.78295693 -0.00072450  0.00000000
H  1.61121896  0.00008608  0.00000000

