%chk=opt.chk
%mem=24GB
%nprocshared=64
#p opt UM062X/6-311+G** nosymm int=superfine

Title Card Required

1 2
C -1  -1.25545883  0.00000000 -0.00000000
C -1   1.25545883  0.00000000  0.00000000
C 0  -0.00000785 -2.10939150  0.00000000
C 0  -0.00003731 -3.49739450 -0.00002923
C 0  -0.99702298 -4.30978824  0.23683941
C 0  -1.11485653 -1.47743341  0.21180861
C 0   0.58257793 -5.70448148 -0.14037520
H 0   1.12991263 -6.57770083 -0.27590245
C 0  -1.36895928  0.79909228  1.19497871
C 0  -0.58268273 -5.70445753  0.14058092
H 0  -1.13003676 -6.57765518  0.27615289
C 0   0.99694048 -4.30982477 -0.23673149
C 0   1.11486136 -1.47746159 -0.21171188
C 0   1.51587596  2.22015782 -1.26414711
C 0  -1.39656836  0.36304969 -1.38863642
C 0  -1.64656266  2.83477859  2.52156339
H 0  -1.77116099  3.90897484  2.54870898
C 0  -2.04835489 -3.68593494  0.49420130
H 0  -2.84899490 -4.24085414  0.69215352
C 0  -1.42177402  1.69172550 -1.92531445
C 0   2.08841350 -2.26363507 -0.46776802
H 0   2.93062414 -1.77391050 -0.61586487
C 0   1.39653996  0.36320231  1.38856797
C 0   1.42161884  1.69192550  1.92515097
C 0   2.04833982 -3.68600507 -0.49384898
H 0   2.84899915 -4.24095586 -0.69161423
C 0  -1.51626768  2.22017516  1.26398248
C 0  -1.30180267  0.11335766  2.44139402
H 0  -1.15283248 -0.95247618  2.44459888
C 0   1.48535943 -0.69940635  2.34047366
H 0   1.49853664 -1.72224140  1.99670883
C 0  -1.61838309  2.12465651  3.70314913
H 0  -1.72933988  2.63347160  4.65105868
C 0  -2.08839378 -2.26355193  0.46808304
H 0  -2.93056996 -1.77379450  0.61631016
C 0  -1.48636265  1.87110722 -3.32211454
H 0  -1.48738316  2.88568909 -3.70323753
C 0   1.36890157  0.79902971 -1.19505569
C 0  -1.49075566  3.13669941  0.15424373
H 0  -1.52894580  4.18083977  0.44851673
C 0  -1.57154191  0.81743900 -4.20129371
H 0  -1.63907217  0.99791802 -5.26660776
C 0  -1.42254093  2.91654451 -1.17256652
H 0  -1.40573931  3.80967096 -1.78986703
C 0   1.48650377  1.87140379  3.32191113
H 0   1.48743250  2.88600091  3.70298763
C 0  -1.42765863  0.74609370  3.65570968
H 0  -1.37351254  0.16759911  4.56943471
C 0  -1.48526764 -0.69962065 -2.34049884
H 0  -1.49854365 -1.72243661 -1.99668506
C 0   1.57198139  0.81779202  4.20113081
H 0   1.63979299  0.99835301  5.26640679
C 0   1.64630585  2.83471440 -2.52173664
H 0   1.77070467  3.90893814 -2.54891016
C 0   1.58623607 -0.48541917  3.69307679
H 0   1.67284146 -1.33313772  4.36004668
C 0   1.61847558  2.12450650 -3.70328028
H 0   1.72951997  2.63327641 -4.65120146
C 0   1.48989653  3.13677656 -0.15449784
H 0   1.52759575  4.18090918 -0.44887282
C 0  -1.58589500 -0.48573282 -3.69314018
H 0  -1.67236968 -1.33350526 -4.36006394
C 0   1.42181343  2.91669446  1.17232838
H 0   1.40459115  3.80985499  1.78956641
C 0   1.30209717  0.11321235 -2.44144785
H 0   1.15338625 -0.95266380 -2.44465558
C 0   1.42800662  0.74590932 -3.65577389
H 0   1.37409116  0.16732892 -4.56946386

