%chk=opt.chk
%mem=24GB
%nprocshared=32
#p opt UM062X/6-311+G** nosymm int=superfine

Title Card Required

1 2
C -1  -1.48372407  0.00000000 -0.00000000
C -1   1.48372407  0.00000000  0.00000000
C 0  -0.00000928 -2.10939150  0.00000000
C 0  -0.00004410 -3.49739450 -0.00002923
C 0  -1.17829989 -4.30978824  0.23683941
C 0  -1.31755772 -1.47743341  0.21180861
C 0   0.68850120 -5.70448148 -0.14037520
H 0   1.33535130 -6.57770083 -0.27590245
C 0  -1.61786097  0.79909228  1.19497871
C 0  -0.68862505 -5.70445753  0.14058092
H 0  -1.33549799 -6.57765518  0.27615289
C 0   1.17820239 -4.30982477 -0.23673149
C 0   1.31756343 -1.47746159 -0.21171188
C 0   1.79148977  2.22015782 -1.26414711
C 0  -1.65048988  0.36304969 -1.38863642
C 0  -1.94593769  2.83477859  2.52156339
H 0  -2.09319026  3.90897484  2.54870898
C 0  -2.42078305 -3.68593494  0.49420130
H 0  -3.36699397 -4.24085414  0.69215352
C 0  -1.68027838  1.69172550 -1.92531445
C 0   2.46812505 -2.26363507 -0.46776802
H 0   3.46346490 -1.77391050 -0.61586487
C 0   1.65045632  0.36320231  1.38856797
C 0   1.68009499  1.69192550  1.92515097
C 0   2.42076525 -3.68600507 -0.49384898
H 0   3.36699899 -4.24095586 -0.69161423
C 0  -1.79195271  2.22017516  1.26398248
C 0  -1.53849407  0.11335766  2.44139402
H 0  -1.36243839 -0.95247618  2.44459888
C 0   1.75542478 -0.69940635  2.34047366
H 0   1.77099784 -1.72224140  1.99670883
C 0  -1.91263456  2.12465651  3.70314913
H 0  -2.04376531  2.63347160  4.65105868
C 0  -2.46810174 -2.26355193  0.46808304
H 0  -3.46340087 -1.77379450  0.61631016
C 0  -1.75661041  1.87110722 -3.32211454
H 0  -1.75781647  2.88568909 -3.70323753
C 0   1.61779277  0.79902971 -1.19505569
C 0  -1.76180214  3.13669941  0.15424373
H 0  -1.80693595  4.18083977  0.44851673
C 0  -1.85727680  0.81743900 -4.20129371
H 0  -1.93708529  0.99791802 -5.26660776
C 0  -1.68118473  2.91654451 -1.17256652
H 0  -1.66132827  3.80967096 -1.78986703
C 0   1.75677718  1.87140379  3.32191113
H 0   1.75787477  2.88600091  3.70298763
C 0  -1.68723292  0.74609370  3.65570968
H 0  -1.62324209  0.16759911  4.56943471
C 0  -1.75531631 -0.69962065 -2.34049884
H 0  -1.77100613 -1.72243661 -1.99668506
C 0   1.85779619  0.81779202  4.20113081
H 0   1.93793716  0.99835301  5.26640679
C 0   1.94563418  2.83471440 -2.52173664
H 0   2.09265098  3.90893814 -2.54891016
C 0   1.87464263 -0.48541917  3.69307679
H 0   1.97699446 -1.33313772  4.36004668
C 0   1.91274386  2.12450650 -3.70328028
H 0   2.04397814  2.63327641 -4.65120146
C 0   1.76078681  3.13677656 -0.15449784
H 0   1.80534043  4.18090918 -0.44887282
C 0  -1.87423955 -0.48573282 -3.69314018
H 0  -1.97643689 -1.33350526 -4.36006394
C 0   1.68032496  2.91669446  1.17232838
H 0   1.65997136  3.80985499  1.78956641
C 0   1.53884210  0.11321235 -2.44144785
H 0   1.36309284 -0.95266380 -2.44465558
C 0   1.68764419  0.74590932 -3.65577389
H 0   1.62392592  0.16732892 -4.56946386

