%chk=opt.chk
%mem=16GB
%nprocshared=24
#p opt UM062X/6-311+G** nosymm int=superfine 

Title Card Required

1 2
C -1 -0.56542168  0.00000000  0.00000000
C -1  0.56542168  0.00000000  0.00000000
H 0 -1.54919447  0.00000000  0.00000000
H 0  1.54918446  0.00000000  0.00000000

