%chk=opt.chk
%mem=16GB
%nprocshared=24
#p opt UM062X/6-311+G** nosymm int=superfine 

Title Card Required

1 2
C -1 -0.72697072  0.00000000  0.00000000
C -1  0.72697072  0.00000000  0.00000000
H 0 -1.99182145  0.00000000  0.00000000
H 0  1.99180858  0.00000000  0.00000000

