AA-stacked Graphene                     
   1.00000000000000     
     2.4673751509673880    0.0000000000000000    0.0000000000000000
    -1.2336584898767164    2.1368209316235856    0.0000000000000000
     0.0000000000000000    0.0000000000000000   15.0000000000000000
   C 
     2
Selective dynamics
Direct
  0.0000000000000000  0.0000000000000000  0.0333333333333314   F   F   F
  0.6666688455419298  0.3333346372906099  0.0333333333333314   T   T   F
 
  0.00000000E+00  0.00000000E+00  0.00000000E+00
  0.00000000E+00  0.00000000E+00  0.00000000E+00
