AA-stacked Graphene
1.0
   2.461  0.000  0.000
  -1.230  2.131  0.000
   0.000  0.000  15.0
C
2
Selective dynamics
Cartesian
  0.000  0.000  0.500 F F F
  1.230  0.710  0.500 T T F
  