%chk=opt.chk
%mem=4GB
%nprocshared=8
#p opt UM062X/6-311+G** nosymm int=superfine

Title Card Required

1 2
B -1  -0.927734   0.000000   0.000000
N -1  0.927734   0.000000   0.000000
H  0  -2.202003   0.102099   0.000328
H  0  1.369503   0.639160   -0.689924

