%chk=opt.chk
%mem=4GB
%nprocshared=8
#p opt UM062X/6-311+G** nosymm int=superfine

Title Card Required

1 2
B -1 -0.95273421  0.00000000  0.00000000
N -1  0.95273421  0.00000000  0.00000000
H  0 -2.12068943 -0.00026083  0.00000000
H  0  1.97125015  0.00000234  0.00000000

