%chk=opt.chk
%mem=4GB
%nprocshared=8
#p opt UM062X/6-311+G** nosymm int=superfine

Title Card Required

1 2
B -1  -0.977734   0.000000   0.000000
N -1  0.977734   0.000000   0.000000
H  0  -2.039359   -0.602982   0.000003
H  0  1.602767   -0.845610   -0.000017

