%chk=opt.chk
%mem=4GB
%nprocshared=8
#p opt UM062X/6-311+G** nosymm int=superfine

Title Card Required

1 2
B -1  -1.077734   0.000000   -0.000000
N -1  1.077734   -0.000000   0.000000
H  0  -2.264015   0.106935   -0.182253
H  0  1.194136   0.216679   1.013641

