%chk=opt.chk
%mem=4GB
%nprocshared=8
#p opt UM062X/6-311+G** nosymm int=superfine

Title Card Required

1 2
B -1  -1.227734   0.000000   0.000000
N -1  1.227734   0.000000   0.000000
H  0  -2.352996   -0.015749   0.407140
H  0  1.314172   0.261782   -1.009726

