%oldchk=../00115/opt.chk
%chk=opt.chk
%mem=4GB
%nprocshared=8
#p opt UM062X/6-311+G** nosymm int=superfine SCF=(MaxCycle=200,NoVarAcc,noincfock) guess=read

Title Card Required

0 1
B -1  -1.252734   0.000000   0.000000
N -1  1.252734   0.000000   0.000000
H  0  -2.420689   -0.000261   0.000000
H  0  2.271250   0.000002   0.000000

