%chk=opt.chk
%mem=4GB
%nprocshared=8
#p opt UM062X/6-311+G** nosymm int=superfine

Title Card Required

1 2
B -1 -1.77773421  0.00000000  0.00000000
N -1  1.77773421  0.00000000  0.00000000
H  0 -2.94568943 -0.00026083  0.00000000
H  0  2.79625015  0.00000234  0.00000000

