%chk=opt.chk
%mem=4GB
%nprocshared=8
#p opt UM062X/6-311+G** nosymm int=superfine

Title Card Required

1 2
B -1  -2.027734   0.000000   0.000000
N -1  2.027734   0.000000   0.000000
H  0  -3.234200   0.000433   0.000000
H  0  3.063364   0.001624   0.000001

