%chk=opt.chk
%mem=4GB
%nprocshared=8
#p opt UM062X/6-311+G** nosymm int=superfine

Title Card Required

0 1
P -1 -2.08448966  0.00000000  0.00000000
P -1  2.08448966  0.00000000  0.00000000
H  0 -2.18735064 -1.41725510  0.00000000
H  0  2.18735064  1.41725510  0.00000000

