Graphene                     
   1.00000000000000     
     3.5776939689027127    0.0000000000000000    0.0000000000000000
     -1.7888048103212388    3.0983903508541988    0.0000000000000000
     0.0000000000000000    0.0000000000000000    15.0000000000000000
   C 
     2
Direct
  0.0000000000000000  0.0000000000000000  0.5
  0.6666688455419298  0.3333346372906099  0.5
