%chk=opt.chk
%mem=24GB
%nprocshared=28
#p opt UM062X/6-311+G** nosymm int=superfine 

Title Card Required

1 2
C -1  -1.85462522  0.00000000  0.00000000
C -1   1.85462522  0.00000000 -0.00000000
C 0  -0.00001017 -2.05545100 -0.00218400
C 0  -0.00002035 -3.45663400 -0.00371000
C 0  -1.28066957 -4.28964700  0.19341900
C 0  -1.49478635 -1.46623300  0.16419700
C 0   0.75126096 -5.68273300 -0.12500700
H 0   1.46630617 -6.55103000 -0.24207000
C 0  -1.87769626  0.76445700  1.22074200
C 0  -0.75133896 -5.68298300  0.11278600
H 0  -1.46637061 -6.55152100  0.22810600
C 0   1.28061304 -4.28923100 -0.20263200
C 0   1.49476374 -1.46588400 -0.16727800
C 0   2.01859478  2.19168900 -1.33769900
C 0  -1.98207496  0.40953900 -1.37420600
C 0  -2.08169339  2.76908500  2.62285300
H 0  -2.20817548  3.84514500  2.68868800
C 0  -2.65400313 -3.70308600  0.41334100
H 0  -3.67367678 -4.27951100  0.58257000
C 0  -1.97330843  1.75683100 -1.86867700
C 0   2.72562974 -2.28649400 -0.38846300
H 0   3.82178861 -1.81328700 -0.50709000
C 0   1.98211113  0.40665600  1.37505900
C 0   1.97335026  1.75290300  1.87236300
C 0   2.65398730 -3.70220600 -0.42113800
H 0   3.67367113 -4.27827200 -0.59153800
C 0  -2.01884122  2.18886500  1.34229400
C 0  -1.71395052  0.04225000  2.44254900
H 0  -1.55387417 -1.02702500  2.40771200
C 0   2.06215043 -0.62790300  2.36195200
H 0   2.10177670 -1.65906400  2.04521500
C 0  -1.97974626  2.02407800  3.78017400
H 0  -2.04287313  2.50708000  4.74815100
C 0  -2.72563652 -2.28730400  0.38372300
H 0  -3.82178296 -1.81434400  0.50342700
C 0  -1.99794287  1.98025300 -3.26008800
H 0  -1.97069713  3.00602900 -3.60919500
C 0   1.87765330  0.76701800 -1.21914100
C 0  -2.02104104  3.13594400  0.25924100
H 0  -2.05209635  4.17143300  0.58431100
C 0  -2.07535391  0.95518900 -4.17545700
H 0  -2.11265826  1.17003200 -5.23669600
C 0  -1.96488104  2.95542500 -1.07578900
H 0  -1.94588296  3.86784300 -1.66423700
C 0   1.99821191  1.97339900  3.26423800
H 0   1.97100348  2.99843800  3.61550800
C 0  -1.77095383  0.64359400  3.67979400
H 0  -1.65127470  0.03773200  4.57151700
C 0  -2.06203174 -0.62294000 -2.36327900
H 0  -2.10172696 -1.65476100 -2.04870200
C 0   2.07577896  0.94641300  4.17744200
H 0   2.11327661  1.15903100  5.23912300
C 0   2.08144922  2.77460400 -2.61703400
H 0   2.20776852  3.85081600 -2.68059700
C 0   2.12709504 -0.37237300  3.71002300
H 0   2.21301148 -1.19837700  4.40661800
C 0   1.97971461  2.03201600 -3.77592100
H 0   2.04286748  2.51705500 -4.74287700
C 0   2.02053687  3.13649300 -0.25265600
H 0   2.05126209  4.17267000 -0.57555100
C 0  -2.12679322 -0.36457400 -3.71081600
H 0  -2.21267687 -1.18910900 -4.40915300
C 0   1.96455887  2.95316000  1.08199600
H 0   1.94539461  3.86433700  1.67236000
C 0   1.71403304  0.04736400 -2.44246500
H 0   1.55405391 -1.02199400 -2.40988200
C 0   1.77106800  0.65130400 -3.67844300
H 0   1.65151774  0.04729700 -4.57143800

