%chk=opt.chk
%mem=24GB
%nprocshared=28
#p opt UM062X/6-311+G** nosymm int=superfine SCF=(Tight,MaxCycle=200)

Title Card Required

1 2
C -1  -1.16990847  0.00000000  0.00000000
C -1   1.16990847  0.00000000 -0.00000000
C 0   0.00000868 -2.15641600  0.00035500
C 0   0.00001640 -3.53176600  0.00057200
C 0  -1.09072059 -4.32427500  0.27970800
C 0  -1.16897946 -1.48110800  0.26120100
C 0   0.63493082 -5.72058700 -0.16372700
H 0   1.22437384 -6.59818100 -0.31972100
C 0  -1.41997953  0.83924400  1.16049800
C 0  -0.63515560 -5.72054000  0.16439000
H 0  -1.22469412 -6.59809200  0.32024000
C 0   1.09064727 -4.32435700 -0.27879900
C 0   1.16895438 -1.48115600 -0.26092300
C 0   1.61232548  2.25440400 -1.16868900
C 0  -1.41931002  0.30603300 -1.40736600
C 0  -1.82129139  2.91080500  2.39776700
H 0  -1.97533852  3.98261000  2.37971100
C 0  -2.22135974 -3.66420300  0.57630300
H 0  -3.10420936 -4.19797000  0.80625700
C 0  -1.49873522  1.60942100 -1.98926600
C 0   2.24881238 -2.23542700 -0.55533500
H 0   3.15995489 -1.73401000 -0.73946300
C 0   1.41949042  0.30612000  1.40730900
C 0   1.49878153  1.60950600  1.98921100
C 0   2.22120732 -3.66436000 -0.57587200
H 0   3.10396433 -4.19817900 -0.80608800
C 0  -1.61299692  2.25426600  1.16871200
C 0  -1.41224355  0.19487900  2.42776200
H 0  -1.23463348 -0.86727000  2.47572600
C 0   1.54888160 -0.78817100  2.31078900
H 0   1.53045475 -1.80013300  1.93766400
C 0  -1.83564911  2.24305700  3.60206400
H 0  -2.00369605  2.78230300  4.52521400
C 0  -2.24891946 -2.23527500  0.55555000
H 0  -3.16008513 -1.73379100  0.73935900
C 0  -1.63851339  1.73853600 -3.38703700
H 0  -1.67761195  2.73906600 -3.80157800
C 0   1.41991489  0.83928600 -1.16052200
C 0  -1.56856546  3.13328800  0.02989000
H 0  -1.61565082  4.18685100  0.28738700
C 0  -1.75459838  0.65295200 -4.22298900
H 0  -1.88025421  0.79238800 -5.28919700
C 0  -1.49082271  2.86449500 -1.28690100
H 0  -1.47878511  3.73278800 -1.93870900
C 0   1.63922245  1.73861300  3.38691600
H 0   1.67828146  2.73914300  3.80146400
C 0  -1.61742492  0.86412900  3.61171400
H 0  -1.59961259  0.31624300  4.54594900
C 0  -1.54824393 -0.78825600 -2.31093200
H 0  -1.52983155 -1.80022700 -1.93784700
C 0   1.75590073  0.65303000  4.22277600
H 0   1.88205049  0.79245400  5.28892300
C 0   1.82058426  2.91106900 -2.39767900
H 0   1.97412202  3.98295200 -2.37956000
C 0   1.72591285 -0.62738900  3.66585200
H 0   1.83871880 -1.50257400  4.29316200
C 0   1.83550536  2.24335300 -3.60198400
H 0   2.00355906  2.78267900 -4.52508500
C 0   1.56712129  3.13343700 -0.02990000
H 0   1.61326511  4.18703300 -0.28744400
C 0  -1.72474555 -0.62746600 -3.66607200
H 0  -1.83720518 -1.50265200 -4.29345000
C 0   1.48983099  2.86460000  1.28690700
H 0   1.47723000  3.73287300  1.93872900
C 0   1.41251849  0.19499300 -2.42782300
H 0   1.23512066 -0.86718000 -2.47590300
C 0   1.61773652  0.86435600 -3.61171000
H 0   1.60027438  0.31649400 -4.54596700

