Graphene                     
   1.00000000000000     
     5.1074665625024940    0.0000000000000000    0.0000000000000000
     -2.5536730740448035    4.4232193284608226    0.0000000000000000
     0.0000000000000000    0.0000000000000000    15.0000000000000000
   C 
     2
Direct
  0.0000000000000000  0.0000000000000000  0.5
  0.6666688455419298  0.3333346372906099  0.5
