%oldchk=force.chk
%chk=nbo.chk
#p UM062X/6-311+G** Pop=NBO Read

NBO Analysis

-1 2
B -0.74140401  0.00000000  0.00000000
B  0.74140401  0.00000000  0.00000000
H -1.92518303 -0.00090417  0.00000000
H  1.92518303  0.00090417  0.00000000

$NBO
ARCHIVE FILE=ethane_nbo.47
$END


