%chk=opt.chk
%mem=4GB
%nprocshared=8
#p opt UM062X/6-311+G** nosymm int=superfine

Title Card Required

0 1
N  0    0.6260  0.0000  0.0000  
N  0    -0.6260  0.0000 0.0000  

