%chk=opt.chk
%mem=24GB
%nprocshared=28
#p opt UM062X/6-311+G** nosymm int=superfine 

Title Card Required

1 2
C -1  -1.78329348  0.00000000  0.00000000
C -1   1.78329348  0.00000000 -0.00000000
C 0  -0.00000978 -2.05545100 -0.00218400
C 0  -0.00001957 -3.45663400 -0.00371000
C 0  -1.23141304 -4.28964700  0.19341900
C 0  -1.43729457 -1.46623300  0.16419700
C 0   0.72236630 -5.68273300 -0.12500700
H 0   1.40990978 -6.55103000 -0.24207000
C 0  -1.80547717  0.76445700  1.22074200
C 0  -0.72244130 -5.68298300  0.11278600
H 0  -1.40997174 -6.55152100  0.22810600
C 0   1.23135870 -4.28923100 -0.20263200
C 0   1.43727283 -1.46588400 -0.16727800
C 0   1.94095652  2.19168900 -1.33769900
C 0  -1.90584130  0.40953900 -1.37420600
C 0  -2.00162826  2.76908500  2.62285300
H 0  -2.12324565  3.84514500  2.68868800
C 0  -2.55192609 -3.70308600  0.41334100
H 0  -3.53238152 -4.27951100  0.58257000
C 0  -1.89741196  1.75683100 -1.86867700
C 0   2.62079783 -2.28649400 -0.38846300
H 0   3.67479674 -1.81328700 -0.50709000
C 0   1.90587609  0.40665600  1.37505900
C 0   1.89745217  1.75290300  1.87236300
C 0   2.55191087 -3.70220600 -0.42113800
H 0   3.53237609 -4.27827200 -0.59153800
C 0  -1.94119348  2.18886500  1.34229400
C 0  -1.64802935  0.04225000  2.44254900
H 0  -1.49410978 -1.02702500  2.40771200
C 0   1.98283696 -0.62790300  2.36195200
H 0   2.02093913 -1.65906400  2.04521500
C 0  -1.90360217  2.02407800  3.78017400
H 0  -1.96430109  2.50708000  4.74815100
C 0  -2.62080435 -2.28730400  0.38372300
H 0  -3.67479130 -1.81434400  0.50342700
C 0  -1.92109891  1.98025300 -3.26008800
H 0  -1.89490109  3.00602900 -3.60919500
C 0   1.80543587  0.76701800 -1.21914100
C 0  -1.94330870  3.13594400  0.25924100
H 0  -1.97316957  4.17143300  0.58431100
C 0  -1.99553261  0.95518900 -4.17545700
H 0  -2.03140217  1.17003200 -5.23669600
C 0  -1.88930870  2.95542500 -1.07578900
H 0  -1.87104130  3.86784300 -1.66423700
C 0   1.92135761  1.97339900  3.26423800
H 0   1.89519565  2.99843800  3.61550800
C 0  -1.70284022  0.64359400  3.67979400
H 0  -1.58776413  0.03773200  4.57151700
C 0  -1.98272283 -0.62294000 -2.36327900
H 0  -2.02089130 -1.65476100 -2.04870200
C 0   1.99594130  0.94641300  4.17744200
H 0   2.03199674  1.15903100  5.23912300
C 0   2.00139348  2.77460400 -2.61703400
H 0   2.12285435  3.85081600 -2.68059700
C 0   2.04528370 -0.37237300  3.71002300
H 0   2.12789565 -1.19837700  4.40661800
C 0   1.90357174  2.03201600 -3.77592100
H 0   1.96429565  2.51705500 -4.74287700
C 0   1.94282391  3.13649300 -0.25265600
H 0   1.97236739  4.17267000 -0.57555100
C 0  -2.04499348 -0.36457400 -3.71081600
H 0  -2.12757391 -1.18910900 -4.40915300
C 0   1.88899891  2.95316000  1.08199600
H 0   1.87057174  3.86433700  1.67236000
C 0   1.64810870  0.04736400 -2.44246500
H 0   1.49428261 -1.02199400 -2.40988200
C 0   1.70295000  0.65130400 -3.67844300
H 0   1.58799783  0.04729700 -4.57143800

