%chk=opt.chk
%mem=4GB
%nprocshared=8
#p opt UM062X/6-311+G** nosymm int=superfine

Title Card Required

0 1
B -0.65273421  0.00000000  0.00000000
H -1.82068943 -0.00026083  0.00000000


