AB-stacked Graphene
1.0
   2.461  0.000  0.000
  -1.230  2.131  0.000
   0.000  0.000  6.800
C
4
Cartesian
  0.000  0.000  0.000
  1.230  0.710  0.000
  0.615  1.421  3.400
  1.845  2.131  3.400