Graphene                     
   1.00000000000000     
     2.6400914115351055    0.0000000000000000    0.0000000000000000
     -1.3200145841680866    2.2863983968372366    0.0000000000000000
     0.0000000000000000    0.0000000000000000    15.0000000000000000
   C 
     2
Direct
  0.0000000000000000  0.0000000000000000  0.5
  0.6666688455419298  0.3333346372906099  0.5
