Graphene                     
   1.00000000000000     
     4.4659490232509729    0.0000000000000000    0.0000000000000000
     -2.2329218666768567    3.8676458862386900    0.0000000000000000
     0.0000000000000000    0.0000000000000000    15.0000000000000000
   C 
     2
Direct
  0.0000000000000000  0.0000000000000000  0.5
  0.6666688455419298  0.3333346372906099  0.5
