%oldchk=force.chk
%chk=nbo.chk
#p UM062X/6-311+G** Pop=NBO Read

NBO Analysis

0 1
C -0.76429600  0.00000000  0.00000000
S  0.76429600  0.00000000  0.00000000

$NBO
ARCHIVE FILE=ethane_nbo.47
$END


