%chk=opt.chk
%mem=4GB
%nprocshared=8
#p opt UM062X/6-311+G** nosymm int=superfine

Title Card Required

0 2
C -0.93126351  0.00000000 -0.00000000
H -1.28140330  1.01301405  0.20044326
H -1.28140577 -0.27856504 -0.99437200
H -1.36671131 -0.67759055  0.73246668


