%oldchk=guess/opt.chk
%chk=opt.chk
%mem=4GB
%nprocshared=8
#p opt UM062X/6-311+G** nosymm int=superfine SCF=(MaxCycle=200,NoVarAcc,noincfock) guess=read

Title Card Required

0 2
S   0.838986   -0.000191   -0.003066
H   1.016166    0.083130    1.335688

