%chk=opt.chk
%mem=24GB
%nprocshared=28
#p opt UM062X/6-311+G** nosymm int=superfine 

Title Card Required

1 2
C -1  -1.82609252  0.00000000  0.00000000
C -1   1.82609252  0.00000000 -0.00000000
C 0  -0.00001002 -2.05545100 -0.00218400
C 0  -0.00002003 -3.45663400 -0.00371000
C 0  -1.26096696 -4.28964700  0.19341900
C 0  -1.47178963 -1.46623300  0.16419700
C 0   0.73970310 -5.68273300 -0.12500700
H 0   1.44374762 -6.55103000 -0.24207000
C 0  -1.84880863  0.76445700  1.22074200
C 0  -0.73977990 -5.68298300  0.11278600
H 0  -1.44381106 -6.55152100  0.22810600
C 0   1.26091130 -4.28923100 -0.20263200
C 0   1.47176737 -1.46588400 -0.16727800
C 0   1.98753948  2.19168900 -1.33769900
C 0  -1.95158150  0.40953900 -1.37420600
C 0  -2.04966734  2.76908500  2.62285300
H 0  -2.17420355  3.84514500  2.68868800
C 0  -2.61317231 -3.70308600  0.41334100
H 0  -3.61715868 -4.27951100  0.58257000
C 0  -1.94294984  1.75683100 -1.86867700
C 0   2.68369697 -2.28649400 -0.38846300
H 0   3.76299186 -1.81328700 -0.50709000
C 0   1.95161711  0.40665600  1.37505900
C 0   1.94299103  1.75290300  1.87236300
C 0   2.61315673 -3.70220600 -0.42113800
H 0   3.61715311 -4.27827200 -0.59153800
C 0  -1.98778212  2.18886500  1.34229400
C 0  -1.68758205  0.04225000  2.44254900
H 0  -1.52996842 -1.02702500  2.40771200
C 0   2.03042504 -0.62790300  2.36195200
H 0   2.06944167 -1.65906400  2.04521500
C 0  -1.94928863  2.02407800  3.78017400
H 0  -2.01144431  2.50708000  4.74815100
C 0  -2.68370365 -2.28730400  0.38372300
H 0  -3.76298630 -1.81434400  0.50342700
C 0  -1.96720529  1.98025300 -3.26008800
H 0  -1.94037871  3.00602900 -3.60919500
C 0   1.84876633  0.76701800 -1.21914100
C 0  -1.98994810  3.13594400  0.25924100
H 0  -2.02052563  4.17143300  0.58431100
C 0  -2.04342539  0.95518900 -4.17545700
H 0  -2.08015583  1.17003200 -5.23669600
C 0  -1.93465210  2.95542500 -1.07578900
H 0  -1.91594630  3.86784300 -1.66423700
C 0   1.96747019  1.97339900  3.26423800
H 0   1.94068035  2.99843800  3.61550800
C 0  -1.74370838  0.64359400  3.67979400
H 0  -1.62587047  0.03773200  4.57151700
C 0  -2.03030817 -0.62294000 -2.36327900
H 0  -2.06939270 -1.65476100 -2.04870200
C 0   2.04384390  0.94641300  4.17744200
H 0   2.08076466  1.15903100  5.23912300
C 0   2.04942692  2.77460400 -2.61703400
H 0   2.17380285  3.85081600 -2.68059700
C 0   2.09437050 -0.37237300  3.71002300
H 0   2.17896515 -1.19837700  4.40661800
C 0   1.94925746  2.03201600 -3.77592100
H 0   2.01143875  2.51705500 -4.74287700
C 0   1.98945169  3.13649300 -0.25265600
H 0   2.01970421  4.17267000 -0.57555100
C 0  -2.09407332 -0.36457400 -3.71081600
H 0  -2.17863569 -1.18910900 -4.40915300
C 0   1.93433489  2.95316000  1.08199600
H 0   1.91546546  3.86433700  1.67236000
C 0   1.68766330  0.04736400 -2.44246500
H 0   1.53014539 -1.02199400 -2.40988200
C 0   1.74382080  0.65130400 -3.67844300
H 0   1.62610977  0.04729700 -4.57143800

