%chk=opt.chk
%mem=4GB
%nprocshared=8
#p opt UM062X/6-311+G** nosymm int=superfine

Title Card Required

0 2
O  0.71193780  0.00000000  0.00000000
H  0.90172194  0.46009715  0.82575362


