%chk=opt.chk
%mem=4GB
%nprocshared=8
#p opt UM062X/6-311+G** nosymm int=superfine

Title Card Required

0 1
C -0.61542801 0.00000000 0.00000000
N 0.61542801 0.00000000 0.00000000
H -1.21606107  0.00000000  0.00000000


