%chk=force.chk 
%mem=4GB
%nprocshared=8
#p UM062X/6-311+G** force int=superfine  pop=saveNBO 

Title Card Required

0 1
O -1.08600650  0.00000000 -0.00000000
S  1.08600650  0.00000000  0.00000000
H -2.05756055 -0.00085003  0.00000000
H  2.46039445 -0.00101711 -0.00000796

