%chk=opt.chk
%mem=4GB
%nprocshared=8
#p opt UM062X/6-311+G** nosymm int=superfine

Title Card Required

0 1
Si -1  -1.761042   0.000000   -0.000000
Si -1  1.761042   -0.000000   -0.000000
H  0  -1.412229   -1.092659   -0.998959
H  0  0.181547   0.141243   0.283446
H  0  -1.553362   1.113489   -1.012102
H  0  1.605831   -1.499453   0.090837

