%chk=opt.chk
%mem=4GB
%nprocshared=8
#p opt UM062X/6-311+G** nosymm int=superfine

Title Card Required

0 1
S	0.0000	1.0282	-0.0552
S	0.0000	-1.0282	-0.0552

