Graphene                     
   1.00000000000000     
     5.3788778291089061    0.0000000000000000    0.0000000000000000
     -2.6893755079312420    4.6582696309394169    0.0000000000000000
     0.0000000000000000    0.0000000000000000    15.0000000000000000
   C 
     2
Direct
  0.0000000000000000  0.0000000000000000  0.5
  0.6666688455419298  0.3333346372906099  0.5
