%oldchk=force.chk
%chk=nbo.chk
#p UM062X/6-311+G** Pop=NBO Read

NBO Analysis

0 1
O -0.71193780  0.00000000 -0.00000000
O  0.71193780  0.00000000  0.00000000
H -0.90172194 -0.94528220 -0.00000000
H  0.90172194  0.46009715  0.82575362

$NBO
ARCHIVE FILE=ethane_nbo.47
$END


