%chk=opt.chk
%mem=4GB
%nprocshared=8
#p opt UM062X/6-311+G** nosymm int=superfine

Title Card Required

1 1
Si -1.10297457  0.00000000  0.00000000
H -1.67439957 -1.37462879  0.00000000


