Graphene                     
   1.00000000000000     
     2.0972688783222799    0.0000000000000000    0.0000000000000000
     -1.0486097163952091    1.8162977918800476    0.0000000000000000
     0.0000000000000000    0.0000000000000000    15.0000000000000000
   C 
     2
Direct
  0.0000000000000000  0.0000000000000000  0.5
  0.6666688455419298  0.3333346372906099  0.5
