Graphene                     
   1.00000000000000     
     5.3542040775992321    0.0000000000000000    0.0000000000000000
     -2.6770389230324745    4.6369014216231808    0.0000000000000000
     0.0000000000000000    0.0000000000000000    15.0000000000000000
   C 
     2
Direct
  0.0000000000000000  0.0000000000000000  0.5
  0.6666688455419298  0.3333346372906099  0.5
