%chk=opt.chk
%mem=4GB
%nprocshared=8
#p UM062X/6-311+G** force int=superfine 

Title Card Required

0 1
C   -0.464010   0.000000   0.000000
C   0.464010   0.000000   0.000000
H   -1.127001   -0.877878   -0.000000
H   -1.127056   0.877744   -0.000000
H   1.127001   0.877878   0.000000
H   1.127056   -0.877744   0.000000

