%chk=opt.chk
%mem=4GB
%nprocshared=8
#p UM062X/6-311+G** force int=superfine 

Title Card Required

0 1
C   -0.642986   0.000000   0.000000
C   0.642986   0.000000   0.000000
H   -1.217950   -0.920471   -0.000000
H   -1.218080   0.920320   -0.000000
H   1.217950   0.920471   0.000000
H   1.218080   -0.920320   0.000000

