%chk=opt.chk
%mem=4GB
%nprocshared=8
#p UM062X/6-311+G** force int=superfine 

Title Card Required

0 1
C   -0.901506   0.000000   0.000000
C   0.901506   0.000000   0.000000
H   -1.393831   -0.959667   0.000000
H   -1.393866   0.959551   -0.000000
H   1.393831   0.959667   0.000000
H   1.393866   -0.959551   -0.000000

