%chk=opt.chk
%mem=4GB
%nprocshared=8
#p UM062X/6-311+G** force int=superfine 

Title Card Required

0 1
C   -0.934650   0.000000   0.000000
C   0.934650   0.000000   0.000000
H   -1.418244   -0.964140   0.000001
H   -1.418289   0.964165   0.000001
H   1.418244   0.964140   0.000001
H   1.418289   -0.964165   0.000001

