%chk=opt.chk
%mem=4GB
%nprocshared=8
#p UM062X/6-311+G** force int=superfine 

Title Card Required

0 1
C   -0.947907   0.000000   0.000000
C   0.947907   0.000000   0.000000
H   -1.427980   -0.965810   0.000000
H   -1.427976   0.965805   -0.000000
H   1.427980   0.965810   0.000000
H   1.427976   -0.965805   -0.000000

