%chk=opt.chk
%mem=4GB
%nprocshared=8
#p UM062X/6-311+G** force int=superfine 

Title Card Required

0 1
C   -1.047338   0.000000   0.000000
C   1.047338   0.000000   0.000000
H   -1.502173   -0.977274   0.000000
H   -1.502121   0.977217   -0.000000
H   1.502173   0.977274   -0.000000
H   1.502121   -0.977217   -0.000000

