%chk=opt.chk
%mem=24GB
%nprocshared=28
#p opt UM062X/6-311+G** nosymm int=superfine 

Title Card Required

1 2
C -1  -1.94021262  0.00000000 -0.00000000
C -1   1.94021262  0.00000000 -0.00000000
C 0  -0.00014960 -1.98856500 -0.00626500
C 0   0.00001465 -3.39883100 -0.01071700
C 0  -1.17118806 -4.24606900  0.22573300
C 0  -1.41186726 -1.42477300  0.18087700
C 0   0.68898018 -5.63715200 -0.16281300
H 0   1.34973409 -6.50179000 -0.30831200
C 0  -1.95832154  0.78920500  1.20146600
C 0  -0.68857114 -5.63816300  0.12703300
H 0  -1.34921102 -6.50380800  0.26692800
C 0   1.17135440 -4.24438900 -0.25267800
C 0   1.41147495 -1.42348500 -0.19007300
C 0   2.46304265  2.14234500 -1.32746000
C 0  -2.20928548  0.35445900 -1.36980700
C 0  -2.42438203  2.75022300  2.60467900
H 0  -2.82491458  3.76040100  2.68886500
C 0  -2.43892775 -3.68227900  0.49339100
H 0  -3.36605649 -4.27011000  0.70123600
C 0  -2.64486418  1.63923000 -1.85430600
C 0   2.52102049 -2.26839800 -0.46237000
H 0   3.54132806 -1.81229400 -0.59929500
C 0   2.20930849  0.34580200  1.37186900
C 0   2.64613840  1.62727300  1.86419900
C 0   2.43894240 -3.67874100 -0.51698800
H 0   3.36613809 -4.26508000 -0.72872400
C 0  -2.45930369  2.13502500  1.34065100
C 0  -1.41837748  0.17930900  2.38518300
H 0  -1.03097520 -0.83322500  2.33620100
C 0   1.99139255 -0.66985100  2.35708400
H 0   1.71617877 -1.66852200  2.04270600
C 0  -1.89250486  2.12232200  3.72278700
H 0  -1.88107458  2.63208100  4.67823000
C 0  -2.52125378 -2.27164700  0.44763000
H 0  -3.54163982 -1.81652600  0.58725300
C 0  -2.75794818  1.84911600 -3.24158500
H 0  -3.07918751  2.83007500 -3.58446800
C 0   1.95883729  0.79678700 -1.19631800
C 0  -2.99258271  2.96691100  0.28298800
H 0  -3.37345698  3.93177600  0.62145700
C 0  -2.49881274  0.85593900 -4.16481800
H 0  -2.60730935  1.05634400 -5.22425100
C 0  -3.04260142  2.77043900 -1.04890800
H 0  -3.45164966  3.60329000 -1.62464100
C 0   2.75810615  1.82886600  3.25283500
H 0   3.08010185  2.80743600  3.60182900
C 0  -1.37512948  0.82120100  3.60110800
H 0  -0.94747643  0.30660300  4.46211700
C 0  -1.99292412 -0.65537200 -2.36124400
H 0  -1.71835686 -1.65615300 -2.05310600
C 0   2.49704265  0.83046500  4.16983900
H 0   2.60465945  1.02450400  5.23054200
C 0   2.42897569  2.76528700 -2.58776500
H 0   2.83223243  3.77493500 -2.66614300
C 0   2.13114929 -0.44137400  3.70613100
H 0   1.95982277 -1.25390600  4.40380800
C 0   1.89425508  2.14556700 -3.70912400
H 0   1.88331022  2.66123700 -4.66140000
C 0   2.99850185  2.96658800 -0.26502200
H 0   3.38209717  3.93248100 -0.59768800
C 0  -2.13354708 -0.41881300 -3.70888900
H 0  -1.96348431 -1.22739400 -4.41143000
C 0   3.04688228  2.76231300  1.06583900
H 0   3.45729994  3.59095800  1.64672700
C 0   1.41612406  0.19544800 -2.38328500
H 0   1.02610954 -0.81642800 -2.34013300
C 0   1.37317212  0.84503700 -3.59505800
H 0   0.94290369  0.33701200 -4.45876200

