%chk=opt.chk
%mem=24GB
%nprocshared=28
#p opt UM062X/6-311+G** nosymm int=superfine SCF=(Tight,MaxCycle=200)

Title Card Required

1 2
C -1  -1.14137412  0.00000000  0.00000000
C -1   1.14137412  0.00000000 -0.00000000
C 0   0.00000847 -2.15641600  0.00035500
C 0   0.00001600 -3.53176600  0.00057200
C 0  -1.06411765 -4.32427500  0.27970800
C 0  -1.14046776 -1.48110800  0.26120100
C 0   0.61944471 -5.72058700 -0.16372700
H 0   1.19451106 -6.59818100 -0.31972100
C 0  -1.38534588  0.83924400  1.16049800
C 0  -0.61966400 -5.72054000  0.16439000
H 0  -1.19482353 -6.59809200  0.32024000
C 0   1.06404612 -4.32435700 -0.27879900
C 0   1.14044329 -1.48115600 -0.26092300
C 0   1.57300047  2.25440400 -1.16868900
C 0  -1.38469271  0.30603300 -1.40736600
C 0  -1.77686965  2.91080500  2.39776700
H 0  -1.92715953  3.98261000  2.37971100
C 0  -2.16718024 -3.66420300  0.57630300
H 0  -3.02849694 -4.19797000  0.80625700
C 0  -1.46218071  1.60942100 -1.98926600
C 0   2.19396329 -2.23542700 -0.55533500
H 0   3.08288282 -1.73401000 -0.73946300
C 0   1.38486871  0.30612000  1.40730900
C 0   1.46222588  1.60950600  1.98921100
C 0   2.16703153 -3.66436000 -0.57587200
H 0   3.02825788 -4.19817900 -0.80608800
C 0  -1.57365553  2.25426600  1.16871200
C 0  -1.37779859  0.19487900  2.42776200
H 0  -1.20452047 -0.86727000  2.47572600
C 0   1.51110400 -0.78817100  2.31078900
H 0   1.49312659 -1.80013300  1.93766400
C 0  -1.79087718  2.24305700  3.60206400
H 0  -1.95482541  2.78230300  4.52521400
C 0  -2.19406776 -2.23527500  0.55555000
H 0  -3.08300988 -1.73379100  0.73935900
C 0  -1.59854965  1.73853600 -3.38703700
H 0  -1.63669459  2.73906600 -3.80157800
C 0   1.38528282  0.83928600 -1.16052200
C 0  -1.53030776  3.13328800  0.02989000
H 0  -1.57624471  4.18685100  0.28738700
C 0  -1.71180329  0.65295200 -4.22298900
H 0  -1.83439435  0.79238800 -5.28919700
C 0  -1.45446118  2.86449500 -1.28690100
H 0  -1.44271718  3.73278800 -1.93870900
C 0   1.59924141  1.73861300  3.38691600
H 0   1.63734776  2.73914300  3.80146400
C 0  -1.57797553  0.86412900  3.61171400
H 0  -1.56059765  0.31624300  4.54594900
C 0  -1.51048188 -0.78825600 -2.31093200
H 0  -1.49251859 -1.80022700 -1.93784700
C 0   1.71307388  0.65303000  4.22277600
H 0   1.83614682  0.79245400  5.28892300
C 0   1.77617976  2.91106900 -2.39767900
H 0   1.92597271  3.98295200 -2.37956000
C 0   1.68381741 -0.62738900  3.66585200
H 0   1.79387200 -1.50257400  4.29316200
C 0   1.79073694  2.24335300 -3.60198400
H 0   1.95469176  2.78267900 -4.52508500
C 0   1.52889882  3.13343700 -0.02990000
H 0   1.57391718  4.18703300 -0.28744400
C 0  -1.68267859 -0.62746600 -3.66607200
H 0  -1.79239529 -1.50265200 -4.29345000
C 0   1.45349365  2.86460000  1.28690700
H 0   1.44120000  3.73287300  1.93872900
C 0   1.37806682  0.19499300 -2.42782300
H 0   1.20499576 -0.86718000 -2.47590300
C 0   1.57827953  0.86435600 -3.61171000
H 0   1.56124329  0.31649400 -4.54596700

